%%MatrixMarket matrix coordinate integer general
%rows=documents (see document_metadata.csv), cols=vocabulary.txt; bag-of-noun counts after preprocessing
2358 1342 50800
1 1 1
1 2 1
1 3 2
1 4 1
1 5 1
1 6 1
1 7 1
1 8 1
1 9 1
1 10 1
1 11 2
1 12 1
1 13 1
2 14 1
2 15 1
2 16 2
2 17 3
2 18 1
2 19 7
2 20 1
2 21 1
2 22 1
2 23 2
2 24 1
2 25 11
2 26 1
2 27 1
2 28 1
2 29 1
2 30 1
2 31 2
2 32 1
2 33 1
2 34 1
2 35 3
2 36 1
2 37 1
3 11 1
3 38 1
3 39 1
3 40 1
3 41 1
3 42 1
3 43 2
3 44 1
3 45 1
3 46 1
3 47 1
3 48 1
3 49 1
3 50 4
3 51 1
3 52 1
3 53 1
3 54 1
3 55 2
3 56 1
3 57 1
3 58 1
4 1 1
4 15 1
4 28 5
4 41 1
4 47 1
4 52 1
4 59 1
4 60 1
4 61 1
4 62 1
4 63 1
4 64 1
4 65 2
4 66 4
4 67 1
4 68 1
4 69 1
4 70 2
4 71 6
4 72 1
4 73 1
4 74 1
4 75 3
4 76 1
4 77 1
5 29 8
5 41 1
5 78 1
5 79 1
5 80 1
5 81 1
5 82 4
5 83 1
5 84 1
5 85 1
5 86 1
5 87 7
5 88 1
5 89 1
5 90 1
5 91 2
5 92 2
5 93 1
5 94 1
6 47 1
6 56 1
6 62 1
6 75 2
6 95 3
6 96 1
6 97 2
6 98 3
6 99 6
6 100 1
6 101 1
6 102 2
6 103 5
7 45 1
7 80 1
7 104 1
7 105 1
7 106 1
7 107 1
7 108 1
7 109 1
7 110 1
7 111 1
7 112 1
8 1 1
8 21 1
8 25 1
8 45 1
8 70 1
8 77 1
8 88 1
8 113 1
8 114 1
8 115 1
8 116 1
8 117 3
9 24 1
9 25 1
9 56 1
9 92 1
9 104 1
9 118 1
9 119 6
9 120 2
9 121 1
9 122 1
9 123 1
9 124 2
9 125 1
9 126 1
9 127 5
9 128 5
9 129 1
9 130 1
9 131 1
9 132 1
9 133 1
9 134 1
9 135 1
9 136 1
9 137 1
9 138 1
9 139 1
9 140 1
9 141 1
9 142 1
9 143 1
9 144 1
9 145 1
9 146 1
9 147 1
9 148 1
9 149 3
9 150 1
9 151 1
9 152 1
9 153 2
9 154 1
9 155 1
10 48 1
10 56 2
10 70 3
10 75 2
10 156 2
10 157 1
10 158 1
10 159 5
10 160 2
10 161 2
10 162 1
10 163 1
10 164 1
10 165 1
10 166 1
10 167 7
11 160 3
11 168 1
11 169 1
11 170 1
11 171 1
12 66 1
12 104 1
12 109 1
12 172 1
12 173 1
12 174 1
12 175 1
12 176 2
13 10 4
13 160 7
13 177 2
13 178 1
13 179 1
13 180 1
13 181 1
13 182 1
13 183 1
13 184 2
13 185 1
13 186 1
13 187 1
13 188 2
13 189 1
13 190 1
14 11 1
14 21 2
14 47 3
14 87 1
14 187 2
14 191 2
14 192 2
14 193 1
14 194 1
14 195 1
14 196 2
14 197 1
14 198 1
15 1 1
15 21 3
15 167 4
15 199 1
15 200 1
15 201 1
15 202 1
15 203 1
15 204 2
15 205 1
15 206 6
16 20 2
16 34 2
16 95 5
16 171 3
16 207 1
16 208 2
16 209 1
16 210 2
16 211 1
16 212 1
16 213 1
16 214 3
16 215 3
16 216 1
16 217 1
17 21 2
17 52 1
17 66 1
17 70 1
17 74 1
17 101 2
17 161 1
17 218 2
17 219 1
17 220 1
17 221 1
17 222 1
17 223 1
17 224 1
17 225 2
18 74 1
18 91 2
18 175 1
18 212 1
18 226 2
18 227 1
18 228 1
18 229 1
18 230 1
18 231 1
18 232 1
19 21 1
19 87 1
19 190 1
19 233 1
19 234 1
19 235 1
19 236 1
19 237 1
19 238 1
19 239 1
19 240 1
20 3 1
20 45 1
20 218 1
20 241 2
20 242 1
20 243 1
20 244 2
21 12 4
21 44 1
21 80 7
21 116 1
21 141 1
21 156 2
21 161 9
21 245 2
21 246 1
21 247 1
21 248 1
21 249 11
21 250 1
21 251 1
21 252 1
21 253 1
21 254 1
21 255 2
21 256 3
21 257 2
22 9 1
22 21 1
22 102 1
22 149 1
22 170 1
22 178 1
22 186 4
22 258 1
22 259 1
22 260 1
22 261 1
22 262 1
22 263 1
22 264 1
22 265 1
22 266 1
22 267 1
22 268 1
23 64 1
23 65 1
23 105 2
23 160 1
23 192 1
23 238 2
23 269 1
23 270 3
23 271 1
23 272 1
23 273 1
23 274 1
23 275 2
23 276 2
23 277 3
23 278 1
23 279 1
23 280 3
23 281 1
23 282 2
24 35 2
24 186 1
24 215 1
24 283 1
24 284 1
24 285 1
24 286 2
25 10 1
25 21 1
25 24 1
25 25 1
25 29 1
25 75 4
25 81 1
25 84 2
25 86 1
25 89 1
25 94 2
25 115 1
25 118 1
25 119 1
25 143 1
25 150 1
25 153 5
25 180 1
25 254 2
25 287 1
25 288 1
25 289 1
25 290 2
25 291 2
25 292 1
25 293 1
25 294 1
25 295 1
25 296 1
25 297 1
25 298 1
26 157 2
26 167 2
26 283 2
26 299 10
26 300 1
26 301 1
26 302 1
26 303 1
26 304 1
26 305 1
26 306 3
26 307 3
26 308 2
26 309 2
26 310 1
26 311 1
27 70 1
27 75 1
27 77 2
27 109 1
27 119 2
27 131 1
27 153 4
27 169 1
27 187 1
27 229 1
27 244 1
27 259 1
27 296 2
27 298 1
27 312 1
27 313 1
27 314 1
27 315 2
27 316 1
27 317 1
27 318 1
27 319 1
27 320 2
27 321 5
28 43 1
28 80 1
28 240 1
28 243 1
28 259 2
28 319 1
28 322 4
28 323 1
28 324 1
28 325 1
28 326 1
29 15 1
29 80 4
29 109 1
29 169 1
29 193 1
29 252 1
29 278 1
29 327 1
29 328 2
29 329 1
29 330 1
29 331 1
29 332 2
30 123 2
30 135 1
30 151 1
30 256 1
30 333 1
30 334 3
30 335 1
30 336 1
31 70 1
31 80 1
31 107 1
31 109 1
31 112 2
31 151 2
31 173 1
31 182 1
31 193 2
31 278 1
31 329 1
31 331 1
31 332 2
31 336 1
31 337 1
31 338 2
31 339 1
31 340 1
31 341 1
32 60 1
32 76 1
32 77 1
32 245 2
32 283 2
32 286 3
32 342 1
32 343 1
32 344 1
32 345 1
32 346 2
32 347 1
32 348 1
33 5 1
33 21 2
33 86 2
33 167 4
33 186 1
33 301 1
33 306 4
33 349 4
33 350 1
33 351 1
33 352 1
33 353 1
33 354 1
33 355 1
34 70 3
34 254 1
34 264 2
34 286 2
34 342 1
34 356 1
34 357 2
34 358 1
34 359 1
34 360 1
34 361 2
35 1 2
35 45 7
35 75 1
35 80 6
35 81 1
35 101 1
35 109 1
35 130 1
35 186 1
35 212 1
35 229 4
35 285 1
35 306 1
35 311 1
35 315 1
35 336 2
35 362 1
35 363 1
35 364 1
35 365 1
35 366 1
35 367 1
36 35 3
36 192 1
36 266 1
36 286 1
36 306 2
36 368 3
36 369 1
36 370 5
36 371 2
36 372 1
37 62 1
37 66 1
37 70 2
37 73 1
37 178 1
37 229 1
37 236 1
37 245 4
37 269 2
37 347 1
37 373 1
37 374 2
37 375 1
37 376 1
38 1 1
38 21 1
38 101 1
38 218 5
38 269 7
38 285 1
38 286 1
38 364 1
38 377 2
39 1 1
39 75 1
39 76 1
39 119 1
39 153 1
39 159 1
39 160 1
39 175 1
39 177 1
39 195 1
39 233 1
39 259 2
39 269 1
39 281 1
39 285 1
39 306 1
39 378 1
39 379 1
39 380 1
39 381 1
39 382 1
39 383 1
39 384 2
39 385 1
40 1 1
40 29 1
40 65 1
40 70 1
40 109 1
40 122 1
40 142 1
40 163 1
40 173 1
40 232 1
40 234 1
40 247 1
40 257 1
40 283 1
40 286 1
40 345 1
40 386 1
40 387 1
40 388 1
40 389 1
40 390 2
40 391 1
40 392 1
40 393 1
40 394 1
40 395 1
40 396 1
40 397 1
40 398 1
40 399 1
40 400 1
41 1 1
41 15 1
41 19 1
41 21 1
41 41 2
41 65 1
41 153 2
41 181 2
41 183 2
41 192 1
41 377 2
41 401 1
41 402 1
41 403 1
42 5 1
42 114 1
42 138 1
42 144 1
42 161 1
42 179 1
42 186 1
42 192 4
42 245 1
42 274 1
42 283 1
42 291 1
42 305 1
42 404 1
42 405 1
42 406 2
42 407 2
42 408 1
42 409 2
42 410 2
42 411 1
43 21 4
43 75 1
43 117 1
43 139 2
43 197 1
43 241 2
43 244 1
43 300 2
43 301 1
43 334 1
43 375 1
43 412 1
43 413 1
43 414 1
43 415 3
43 416 1
43 417 1
43 418 3
43 419 3
43 420 1
44 41 1
44 70 1
44 80 4
44 105 1
44 157 1
44 160 2
44 229 2
44 269 3
44 285 1
44 421 1
44 422 1
44 423 1
45 9 1
45 139 8
45 149 2
45 153 1
45 158 1
45 258 1
45 265 1
45 313 1
45 363 1
45 424 1
45 425 1
45 426 1
45 427 1
45 428 1
45 429 1
45 430 1
45 431 1
45 432 1
46 82 1
46 102 1
46 170 3
46 178 1
46 264 1
46 266 1
46 268 2
46 279 1
46 319 1
46 333 1
46 348 1
46 357 1
46 359 3
46 378 2
46 412 1
46 433 1
46 434 1
46 435 2
46 436 2
46 437 4
46 438 1
46 439 1
47 5 1
47 167 1
47 252 1
47 277 1
47 298 1
47 336 1
47 425 1
47 440 1
47 441 1
47 442 1
47 443 1
47 444 2
47 445 1
47 446 2
47 447 2
48 41 3
48 75 7
48 95 2
48 314 1
48 448 1
48 449 1
48 450 2
48 451 4
49 10 1
49 44 1
49 56 1
49 70 4
49 86 1
49 175 1
49 215 1
49 251 1
49 298 1
49 452 2
49 453 1
49 454 1
49 455 1
50 15 1
50 40 1
50 75 1
50 86 2
50 102 2
50 139 1
50 179 1
50 195 1
50 215 1
50 218 1
50 419 1
50 456 7
50 457 1
51 21 1
51 44 1
51 47 2
51 87 2
51 167 2
51 180 1
51 192 2
51 256 3
51 298 1
51 458 1
51 459 1
51 460 3
52 15 1
52 139 1
52 161 1
52 220 1
52 252 1
52 254 1
52 461 1
52 462 1
52 463 1
52 464 1
52 465 1
53 56 1
53 75 1
53 80 1
53 109 1
53 175 2
53 192 1
53 397 1
53 419 3
53 422 1
53 466 1
54 97 2
54 100 3
54 102 3
54 116 1
54 167 2
54 229 1
54 249 1
54 278 2
54 327 1
54 331 1
54 375 1
54 467 1
54 468 1
54 469 1
54 470 2
55 48 1
55 110 1
55 117 1
55 170 1
55 215 2
55 259 4
55 277 2
55 280 5
55 414 1
56 95 2
56 170 3
56 187 2
56 193 1
56 194 2
56 196 1
56 220 1
56 259 1
56 264 8
56 300 1
56 336 1
56 412 1
56 462 2
56 471 3
56 472 5
56 473 1
56 474 2
56 475 2
56 476 2
56 477 1
56 478 1
56 479 1
56 480 1
56 481 1
56 482 1
56 483 1
56 484 3
57 15 1
57 21 1
57 28 1
57 41 1
57 56 2
57 75 1
57 98 3
57 99 1
57 110 1
57 186 1
57 217 1
57 228 1
57 285 1
57 291 2
57 485 1
57 486 4
57 487 1
57 488 1
57 489 1
58 14 1
58 21 1
58 45 1
58 75 1
58 76 1
58 119 1
58 157 5
58 161 2
58 167 7
58 179 2
58 187 1
58 238 1
58 240 1
58 298 3
58 299 1
58 332 1
58 363 1
58 366 1
58 375 1
58 380 1
58 385 6
58 388 1
58 401 2
58 405 3
58 442 1
58 490 8
58 491 1
58 492 1
58 493 2
58 494 3
58 495 1
58 496 1
58 497 1
59 40 1
59 116 3
59 139 1
59 256 2
59 381 1
59 415 4
59 498 1
59 499 1
59 500 1
59 501 1
59 502 1
59 503 3
60 44 1
60 193 2
60 215 1
60 218 1
60 336 1
60 460 2
60 504 1
60 505 1
60 506 2
61 21 2
61 153 3
61 161 1
61 171 1
61 187 1
61 193 1
61 336 1
61 359 1
61 444 2
61 473 2
61 489 1
61 503 2
61 507 1
61 508 1
61 509 2
62 72 1
62 169 1
62 199 1
62 335 1
62 463 1
62 510 2
62 511 1
63 7 1
63 45 1
63 70 1
63 80 1
63 109 1
63 192 4
63 212 1
63 235 1
63 254 2
63 257 1
63 266 1
63 289 1
63 298 1
63 309 1
63 323 1
63 336 1
63 344 1
63 375 1
63 380 1
63 384 2
63 397 1
63 421 1
63 512 1
63 513 1
63 514 1
63 515 1
63 516 2
63 517 1
64 21 3
64 64 1
64 119 1
64 153 2
64 170 1
64 179 1
64 191 1
64 218 1
64 264 2
64 334 1
64 358 7
64 512 1
64 518 1
64 519 1
64 520 1
65 3 1
65 6 1
65 11 5
65 28 6
65 71 1
65 80 1
65 161 1
65 192 1
65 218 1
65 281 1
65 412 2
65 416 2
65 521 1
65 522 3
65 523 1
66 15 1
66 27 1
66 35 3
66 64 1
66 105 1
66 109 1
66 175 1
66 185 1
66 186 1
66 215 1
66 252 1
66 259 1
66 371 2
66 384 3
66 396 3
66 422 1
66 524 2
66 525 1
66 526 3
66 527 1
66 528 2
66 529 1
66 530 1
66 531 1
66 532 1
67 10 1
67 39 2
67 44 1
67 70 1
67 77 1
67 80 1
67 87 1
67 116 1
67 130 1
67 139 5
67 153 1
67 157 1
67 167 1
67 182 1
67 229 1
67 313 1
67 407 1
67 415 1
67 426 1
67 429 1
67 463 1
67 504 1
67 533 1
67 534 2
67 535 1
67 536 2
67 537 2
67 538 1
67 539 1
67 540 1
67 541 1
68 35 3
68 78 1
68 279 1
68 280 1
68 370 1
68 542 1
69 10 2
69 13 1
69 70 1
69 75 3
69 80 1
69 87 1
69 153 1
69 161 2
69 192 1
69 254 6
69 426 1
69 465 6
69 471 1
69 543 1
69 544 1
69 545 2
69 546 2
69 547 1
70 29 1
70 143 1
70 153 2
70 214 1
70 249 1
70 254 1
70 302 2
70 434 1
70 460 2
70 505 1
70 548 1
70 549 1
70 550 1
70 551 1
70 552 2
71 45 4
71 49 1
71 56 1
71 70 1
71 73 1
71 75 3
71 80 8
71 88 3
71 112 2
71 117 1
71 150 1
71 171 1
71 172 1
71 192 1
71 229 1
71 241 1
71 244 1
71 248 1
71 256 1
71 267 1
71 293 1
71 294 1
71 295 1
71 300 1
71 413 1
71 419 1
71 512 1
71 553 1
71 554 1
71 555 2
71 556 1
72 13 1
72 21 1
72 65 1
72 86 1
72 110 1
72 156 2
72 158 3
72 303 1
72 356 1
72 415 9
72 557 1
72 558 1
73 151 3
73 268 1
73 279 1
73 337 1
73 359 3
73 514 1
73 559 1
73 560 1
73 561 4
73 562 1
73 563 1
74 80 2
74 233 3
74 313 3
74 464 1
74 564 1
74 565 1
75 71 1
75 80 1
75 105 1
75 161 2
75 164 1
75 168 1
75 226 1
75 257 3
75 264 1
75 281 2
75 311 2
75 366 2
75 434 1
75 471 2
75 516 1
75 554 4
75 566 1
75 567 1
76 10 1
76 86 1
76 153 1
76 179 1
76 358 2
76 453 2
76 568 1
76 569 1
77 3 5
77 10 4
77 45 1
77 70 1
77 139 9
77 157 1
77 159 1
77 166 1
77 186 2
77 203 1
77 232 1
77 269 1
77 270 1
77 382 1
77 490 1
77 570 1
77 571 1
77 572 3
77 573 1
78 5 1
78 80 5
78 90 1
78 92 1
78 109 1
78 126 1
78 139 1
78 186 1
78 259 1
78 266 1
78 357 1
78 388 1
78 421 1
78 425 1
78 574 2
78 575 1
78 576 1
78 577 1
78 578 1
79 47 1
79 65 1
79 160 4
79 169 1
79 171 1
79 192 4
79 305 1
79 311 1
79 335 1
80 1 1
80 3 3
80 64 1
80 129 1
80 139 1
80 142 1
80 164 1
80 238 1
80 311 1
80 375 1
80 384 1
80 393 1
80 397 1
80 467 1
80 546 5
80 579 1
80 580 1
80 581 1
80 582 5
80 583 1
80 584 3
80 585 1
81 10 1
81 21 3
81 102 2
81 206 3
81 217 1
81 305 1
81 360 2
81 372 1
81 557 1
81 586 1
81 587 1
81 588 1
81 589 2
82 186 1
82 269 1
82 305 2
82 363 1
82 406 3
82 571 1
82 584 1
82 590 1
83 1 1
83 7 2
83 56 4
83 80 2
83 95 5
83 105 1
83 150 1
83 178 1
83 223 3
83 231 3
83 249 2
83 260 1
83 359 2
83 382 1
83 383 2
83 435 4
83 465 1
83 466 1
83 504 1
83 518 1
83 591 2
83 592 1
83 593 1
83 594 1
83 595 3
83 596 5
83 597 1
83 598 1
84 7 1
84 21 1
84 88 1
84 95 3
84 260 3
84 279 2
84 356 2
84 412 2
84 448 1
84 451 4
84 484 1
84 572 1
84 599 1
84 600 2
85 45 1
85 70 2
85 76 1
85 86 1
85 95 3
85 102 3
85 139 1
85 192 1
85 214 1
85 267 1
85 285 1
85 301 1
85 358 1
85 383 1
85 471 1
85 601 1
86 47 1
86 80 4
86 187 1
86 207 1
86 212 1
86 213 1
86 257 3
86 361 1
86 366 1
86 372 1
86 391 4
86 429 1
86 446 1
86 484 1
86 602 1
86 603 1
86 604 1
87 14 1
87 27 1
87 184 1
87 187 3
87 192 3
87 236 1
87 243 1
87 285 2
87 301 2
87 340 2
87 341 1
87 394 1
87 402 1
87 605 1
87 606 2
87 607 1
87 608 1
87 609 1
88 70 1
88 80 1
88 183 1
88 190 1
88 215 2
88 259 7
88 311 2
88 412 3
88 415 1
88 463 1
88 484 1
88 610 1
88 611 1
88 612 1
88 613 1
89 3 4
89 11 2
89 56 2
89 206 4
89 286 1
89 330 1
89 372 1
89 473 8
89 606 1
89 614 1
90 21 2
90 50 1
90 77 1
90 116 1
90 183 1
90 187 1
90 195 1
90 232 1
90 249 1
90 259 1
90 303 1
90 338 1
90 379 2
90 615 1
90 616 2
90 617 1
90 618 1
91 82 1
91 179 1
91 188 1
91 301 1
91 304 1
91 342 1
91 395 2
91 489 6
91 619 1
91 620 1
92 10 1
92 75 2
92 95 1
92 143 1
92 260 2
92 301 1
92 314 2
92 356 1
92 429 3
92 448 1
92 474 1
92 485 1
92 572 1
92 616 3
92 621 1
93 45 1
93 88 2
93 95 1
93 126 1
93 178 1
93 234 1
93 280 6
93 294 1
93 342 1
93 354 1
93 375 1
93 384 5
93 468 1
93 526 3
93 527 1
93 622 1
93 623 1
93 624 5
93 625 1
93 626 1
93 627 6
93 628 1
93 629 5
94 1 1
94 19 1
94 195 1
94 215 1
94 226 1
94 481 2
94 531 1
94 630 2
94 631 1
94 632 1
94 633 1
94 634 2
95 12 1
95 45 5
95 62 1
95 66 1
95 74 1
95 81 1
95 104 5
95 109 3
95 116 1
95 176 4
95 254 1
95 285 1
95 298 2
95 393 1
95 400 1
95 469 1
95 635 2
95 636 1
95 637 4
96 46 5
96 80 1
96 81 1
96 95 3
96 116 4
96 163 2
96 187 2
96 192 1
96 291 5
96 294 1
96 318 3
96 376 4
96 444 1
96 478 2
96 532 1
96 595 1
96 638 4
96 639 4
96 640 1
96 641 1
96 642 1
96 643 2
97 1 1
97 5 1
97 41 1
97 50 1
97 85 3
97 153 2
97 171 3
97 187 1
97 249 1
97 277 1
97 286 2
97 294 1
97 442 1
97 446 3
97 512 1
97 542 1
97 600 1
97 644 2
97 645 1
97 646 1
97 647 1
97 648 1
97 649 1
97 650 1
98 47 2
98 74 1
98 75 2
98 171 1
98 178 1
98 193 1
98 212 2
98 214 1
98 224 1
98 228 2
98 273 2
98 286 1
98 376 1
98 473 1
98 532 6
98 642 3
98 651 3
98 652 2
98 653 1
98 654 1
98 655 2
98 656 1
99 62 2
99 64 1
99 70 6
99 80 1
99 109 1
99 130 2
99 142 4
99 167 3
99 238 1
99 299 1
99 306 4
99 343 1
99 490 2
99 657 2
99 658 1
99 659 1
100 21 2
100 28 1
100 45 1
100 75 5
100 100 1
100 101 1
100 122 2
100 125 2
100 157 1
100 241 1
100 244 2
100 285 1
100 299 1
100 331 1
100 417 1
100 442 2
100 660 1
100 661 2
101 74 1
101 75 1
101 95 2
101 103 3
101 215 1
101 229 1
101 259 2
101 314 1
101 315 1
101 419 1
101 471 1
101 502 1
101 662 1
101 663 1
102 10 1
102 21 2
102 70 1
102 75 1
102 102 2
102 148 1
102 166 2
102 167 1
102 177 2
102 218 1
102 222 1
102 252 1
102 372 2
102 388 1
102 413 1
102 478 2
102 595 1
102 663 1
102 664 1
103 21 2
103 70 1
103 75 3
103 100 2
103 148 1
103 166 2
103 168 1
103 175 1
103 266 2
103 267 1
103 274 1
103 311 1
103 338 1
103 388 1
103 405 1
103 463 1
103 471 1
103 665 2
103 666 1
103 667 1
104 5 1
104 45 1
104 75 1
104 80 3
104 101 1
104 169 1
104 170 1
104 171 1
104 183 1
104 190 1
104 257 3
104 280 3
104 325 1
104 327 1
104 338 4
104 518 4
104 555 1
104 625 1
104 652 1
104 668 3
104 669 2
104 670 1
104 671 1
105 35 2
105 105 2
105 143 1
105 192 1
105 215 4
105 234 1
105 284 1
105 325 1
105 396 1
105 529 1
105 672 1
105 673 1
105 674 1
105 675 1
106 12 1
106 80 1
106 109 3
106 141 1
106 163 3
106 168 1
106 193 1
106 250 1
106 256 1
106 274 2
106 315 1
106 412 2
106 426 2
106 471 5
106 509 1
106 555 1
106 559 1
106 676 1
106 677 2
106 678 1
107 15 1
107 85 2
107 146 1
107 256 1
107 332 1
107 356 1
107 370 1
107 390 1
107 413 3
107 442 1
107 499 3
107 503 2
107 528 2
107 646 1
107 679 1
107 680 1
107 681 1
107 682 4
107 683 1
107 684 1
107 685 2
107 686 1
108 95 3
108 132 2
108 160 3
108 187 1
108 199 3
108 227 2
108 300 2
108 301 2
108 319 1
108 516 1
108 537 1
108 661 4
108 687 1
108 688 1
108 689 1
109 3 1
109 5 1
109 34 2
109 143 1
109 162 1
109 269 1
109 273 1
109 291 1
109 303 1
109 306 1
109 384 1
109 392 1
109 573 3
109 595 1
109 690 1
109 691 2
110 1 2
110 119 1
110 125 4
110 185 1
110 191 1
110 195 1
110 386 1
110 481 1
110 531 1
110 692 1
111 5 1
111 52 1
111 65 1
111 93 6
111 106 6
111 154 3
111 267 1
111 375 1
111 422 1
111 543 1
111 564 3
111 571 3
111 693 1
111 694 4
111 695 1
112 83 1
112 104 1
112 109 1
112 126 1
112 132 2
112 141 1
112 151 1
112 159 1
112 168 1
112 199 2
112 245 1
112 272 1
112 285 2
112 322 1
112 332 1
112 336 2
112 397 2
112 419 1
112 458 2
112 555 1
112 577 1
112 635 1
112 660 1
112 696 1
112 697 1
112 698 1
112 699 1
113 75 1
113 252 1
113 286 1
113 301 1
113 335 1
113 532 3
113 642 3
113 651 1
113 652 1
113 700 1
113 701 2
114 65 1
114 143 1
114 151 1
114 199 5
114 206 3
114 212 1
114 213 1
114 226 2
114 238 1
114 306 1
114 319 1
114 334 6
114 543 1
114 561 1
114 686 1
114 702 2
114 703 1
115 5 2
115 25 1
115 35 2
115 66 2
115 82 1
115 85 1
115 95 1
115 116 1
115 143 1
115 153 1
115 234 1
115 357 1
115 413 1
115 422 1
115 457 1
115 463 1
115 503 3
115 704 2
116 3 1
116 14 1
116 21 1
116 32 1
116 80 1
116 88 1
116 92 1
116 119 2
116 139 3
116 172 1
116 254 1
116 274 1
116 306 1
116 311 1
116 312 1
116 355 1
116 382 1
116 484 2
116 705 1
116 706 1
116 707 1
117 21 2
117 25 1
117 56 3
117 82 1
117 131 1
117 167 1
117 215 1
117 274 2
117 309 2
117 332 2
117 363 1
117 412 1
117 471 1
117 473 2
117 559 1
117 573 3
117 606 2
117 663 1
117 686 1
117 708 1
117 709 1
118 32 1
118 235 2
118 332 1
118 634 1
118 710 1
118 711 1
118 712 1
119 59 3
119 168 2
119 179 1
119 183 1
119 259 1
119 286 1
119 507 1
119 562 1
119 594 1
119 595 1
119 631 1
119 713 1
120 94 3
120 176 1
120 178 1
120 254 3
120 267 1
120 277 4
120 278 1
120 327 1
120 418 2
120 466 1
120 714 1
120 715 1
120 716 1
121 10 2
121 14 1
121 21 3
121 44 1
121 56 2
121 70 1
121 86 1
121 92 1
121 153 2
121 187 1
121 257 2
121 264 2
121 300 1
121 359 2
121 384 1
121 552 1
121 631 1
122 76 1
122 105 1
122 109 1
122 208 1
122 209 1
122 212 1
122 215 2
122 232 1
122 240 2
122 252 2
122 257 1
122 259 4
122 297 1
122 314 1
122 332 1
122 338 1
122 375 3
122 384 1
122 441 1
122 471 1
122 555 1
122 612 3
122 717 3
122 718 3
122 719 1
123 5 1
123 15 1
123 28 1
123 45 1
123 48 1
123 65 1
123 92 1
123 109 3
123 139 3
123 151 1
123 159 1
123 173 1
123 175 1
123 185 1
123 187 1
123 215 1
123 234 2
123 245 1
123 275 1
123 307 1
123 336 1
123 343 1
123 363 1
123 364 2
123 371 1
123 397 2
123 444 3
123 503 4
123 539 2
123 543 1
123 652 1
123 655 1
123 657 1
123 670 1
123 720 1
123 721 1
123 722 1
124 10 1
124 23 1
124 41 1
124 51 1
124 70 1
124 80 2
124 85 1
124 153 4
124 259 1
124 331 1
124 343 1
124 375 1
124 418 1
124 438 1
124 446 4
124 528 1
124 529 3
124 546 1
124 642 1
124 650 2
124 723 3
125 5 1
125 80 1
125 88 1
125 102 1
125 117 1
125 151 2
125 175 1
125 238 1
125 259 1
125 346 2
125 357 1
125 435 1
125 517 1
125 540 1
125 562 1
125 594 1
125 713 1
125 724 3
125 725 2
125 726 1
126 47 2
126 75 2
126 95 2
126 97 2
126 98 1
126 99 2
126 102 4
126 103 1
126 218 3
126 222 1
126 312 1
126 443 1
126 581 1
126 727 1
126 728 1
127 1 2
127 41 1
127 42 2
127 44 1
127 46 1
127 50 5
127 55 1
127 102 1
127 218 4
127 221 1
127 390 2
127 559 2
127 662 2
127 729 2
127 730 1
127 731 1
127 732 2
128 10 1
128 46 1
128 92 2
128 105 1
128 153 1
128 161 1
128 193 1
128 198 3
128 212 2
128 253 1
128 257 1
128 259 2
128 275 1
128 299 2
128 315 1
128 334 1
128 419 3
128 426 1
128 468 1
128 471 5
128 481 3
128 516 1
128 531 2
128 611 1
128 705 4
128 708 1
128 718 2
128 721 1
128 733 1
128 734 3
128 735 1
128 736 1
129 27 1
129 35 1
129 175 5
129 215 1
129 273 1
129 312 2
129 372 1
129 524 2
129 526 1
129 527 2
129 528 2
129 661 1
129 737 2
130 15 5
130 74 1
130 185 1
130 215 1
130 235 1
130 236 1
130 237 1
130 278 1
130 343 2
130 577 1
130 730 1
130 738 2
130 739 2
131 21 2
131 25 1
131 102 4
131 165 1
131 215 1
131 419 1
131 536 1
131 566 1
131 621 1
131 660 1
131 704 9
131 740 1
131 741 1
132 8 1
132 21 1
132 158 1
132 215 2
132 280 3
132 312 2
132 384 1
132 524 3
132 526 4
132 528 1
132 586 1
132 734 1
132 737 1
132 742 1
132 743 1
133 65 1
133 78 1
133 107 1
133 117 1
133 122 2
133 175 1
133 186 1
133 215 1
133 230 3
133 244 2
133 249 1
133 273 1
133 332 1
133 375 1
133 417 1
133 419 1
133 489 1
133 744 1
133 745 1
133 746 1
133 747 1
134 39 2
134 91 1
134 182 1
134 252 1
134 283 1
134 748 2
135 32 1
135 77 1
135 232 1
135 240 1
135 378 1
135 422 1
135 592 1
135 749 3
135 750 1
135 751 1
136 228 1
136 377 3
136 415 1
136 442 1
136 443 2
136 459 1
137 15 1
137 19 1
137 41 1
137 80 2
137 100 1
137 126 2
137 183 1
137 230 1
137 278 1
137 294 2
137 661 2
137 738 1
137 752 1
137 753 1
138 77 1
138 139 2
138 167 1
138 186 1
138 283 1
138 376 1
138 527 1
138 754 2
139 15 1
139 29 3
139 64 1
139 65 1
139 80 1
139 104 3
139 116 1
139 176 1
139 202 1
139 232 1
139 238 3
139 247 1
139 281 1
139 336 1
139 387 1
139 517 1
139 581 1
139 670 1
139 697 1
139 755 1
139 756 1
139 757 1
139 758 1
140 28 1
140 35 3
140 45 1
140 52 1
140 65 1
140 80 2
140 96 1
140 127 1
140 213 1
140 215 1
140 254 2
140 280 4
140 331 1
140 370 2
140 371 2
140 396 1
140 422 1
140 426 1
140 442 1
140 458 1
140 512 1
140 528 2
140 667 1
140 759 2
141 47 1
141 62 1
141 64 1
141 156 1
141 187 2
141 193 2
141 383 4
141 399 3
141 537 1
141 612 1
141 657 1
141 661 3
141 760 1
141 761 1
141 762 1
142 10 2
142 25 1
142 30 1
142 44 1
142 76 2
142 117 1
142 153 2
142 178 1
142 260 2
142 266 1
142 326 2
142 345 1
142 360 2
142 613 1
142 660 1
142 709 1
142 763 1
142 764 1
142 765 1
142 766 2
142 767 1
142 768 1
143 28 4
143 32 1
143 47 1
143 50 3
143 74 1
143 76 1
143 77 1
143 164 1
143 169 1
143 301 4
143 412 3
143 442 1
143 450 2
143 460 1
143 478 1
143 482 1
143 556 1
143 769 1
143 770 1
143 771 1
144 59 2
144 77 6
144 179 1
144 238 3
144 286 3
144 296 1
144 383 1
144 560 1
144 562 2
144 661 1
144 713 2
144 734 2
144 754 1
144 772 1
145 10 1
145 16 1
145 25 3
145 79 1
145 87 1
145 150 1
145 153 1
145 260 2
145 266 1
145 303 1
145 381 1
145 406 1
145 613 1
145 624 2
145 709 1
145 773 1
145 774 1
145 775 4
145 776 3
145 777 1
146 1 1
146 21 2
146 75 1
146 94 4
146 153 2
146 174 2
146 187 1
146 206 3
146 238 1
146 274 1
146 335 1
146 356 1
146 371 1
146 410 1
146 463 2
146 591 1
146 705 1
146 711 2
147 78 1
147 156 1
147 173 1
147 183 1
147 187 1
147 192 2
147 224 2
147 240 1
147 257 1
147 259 1
147 275 1
147 285 1
147 301 4
147 302 1
147 318 1
147 386 1
147 442 2
147 445 1
147 471 1
147 778 1
147 779 1
147 780 1
147 781 1
148 102 1
148 239 1
148 359 1
148 384 2
148 435 2
148 442 1
148 486 1
148 661 1
148 782 1
149 19 1
149 80 3
149 86 1
149 109 1
149 117 1
149 159 1
149 175 1
149 182 1
149 226 1
149 338 3
149 422 1
149 424 1
149 425 1
149 444 1
149 515 1
149 584 1
149 616 1
149 694 1
149 728 1
149 783 1
150 64 1
150 178 1
150 245 2
150 254 1
150 305 6
150 306 1
150 419 2
150 421 1
150 424 2
150 784 1
150 785 1
151 1 1
151 21 3
151 44 1
151 55 1
151 64 1
151 101 2
151 102 2
151 163 11
151 218 4
151 257 1
151 295 1
151 301 1
151 331 1
151 334 1
151 450 1
151 471 10
151 560 1
151 653 1
151 654 1
151 732 8
151 786 1
151 787 1
151 788 1
151 789 1
152 5 4
152 15 1
152 80 1
152 187 2
152 191 4
152 198 1
152 227 3
152 291 5
152 318 2
152 376 3
152 442 2
152 443 1
152 445 1
152 460 1
152 471 1
152 475 3
152 504 2
152 542 1
152 680 1
152 790 1
153 1 1
153 52 1
153 85 7
153 126 1
153 143 1
153 153 1
153 186 1
153 214 2
153 254 1
153 332 1
153 359 1
153 418 1
153 471 1
153 484 1
153 498 1
153 511 2
153 512 1
153 597 1
153 612 1
153 726 1
153 791 1
153 792 1
153 793 1
153 794 2
153 795 1
154 80 1
154 98 1
154 151 1
154 170 1
154 176 3
154 180 1
154 212 12
154 259 1
154 264 1
154 320 1
154 419 1
154 471 2
154 477 2
154 480 1
154 487 1
154 509 1
154 556 2
154 562 1
154 583 1
154 673 4
154 708 5
154 725 1
154 796 1
154 797 2
154 798 1
155 41 1
155 50 3
155 51 2
155 53 1
155 95 3
155 102 2
155 125 2
155 169 2
155 202 1
155 301 1
155 310 2
155 595 1
155 607 1
155 799 3
156 139 6
156 158 1
156 161 2
156 206 8
156 226 1
156 252 1
156 422 1
156 475 1
156 800 3
156 801 1
156 802 1
157 45 1
157 80 1
157 104 1
157 158 1
157 162 1
157 171 1
157 208 1
157 209 1
157 215 1
157 226 1
157 257 1
157 259 1
157 267 3
157 422 1
157 575 1
157 595 5
157 614 1
157 622 1
157 652 2
157 697 1
157 803 1
157 804 1
157 805 1
157 806 1
157 807 1
158 308 1
158 323 1
158 343 3
158 374 1
158 376 4
158 415 1
158 499 4
158 503 2
158 734 1
159 10 1
159 123 4
159 149 1
159 167 1
159 186 1
159 215 1
159 252 1
159 285 1
159 334 3
159 430 1
159 481 2
159 484 2
159 515 1
159 596 1
159 808 1
159 809 1
160 45 1
160 47 1
160 50 1
160 51 1
160 75 1
160 86 1
160 102 1
160 187 1
160 264 2
160 281 1
160 310 2
160 335 1
160 382 1
160 412 1
160 444 1
160 473 1
160 477 1
160 483 1
160 488 1
160 542 1
160 595 1
160 661 1
160 734 1
160 771 1
160 810 2
161 35 3
161 65 1
161 110 1
161 123 1
161 179 1
161 256 1
161 279 1
161 289 1
161 336 1
161 381 1
161 421 1
161 514 1
161 774 2
161 775 3
161 811 1
161 812 2
161 813 1
162 5 2
162 11 1
162 21 2
162 187 2
162 191 3
162 194 1
162 195 1
162 211 1
162 215 1
162 338 2
162 412 1
162 442 1
162 443 2
162 447 1
162 462 1
162 469 1
162 471 1
162 475 2
162 486 1
162 506 1
162 583 1
162 601 2
162 662 1
162 672 1
162 814 1
162 815 1
162 816 1
163 7 1
163 13 1
163 30 1
163 70 4
163 81 1
163 87 1
163 92 1
163 100 2
163 146 2
163 158 1
163 192 1
163 260 1
163 356 1
163 379 2
163 388 1
163 446 1
163 448 1
163 537 1
163 596 2
163 647 4
163 660 1
163 673 1
163 693 1
163 704 4
163 705 1
163 736 1
163 792 1
163 794 2
163 817 3
163 818 2
163 819 3
164 45 2
164 46 1
164 56 1
164 82 1
164 91 1
164 92 2
164 105 1
164 119 2
164 161 1
164 167 1
164 171 2
164 208 1
164 209 2
164 210 2
164 229 1
164 234 1
164 241 2
164 244 3
164 302 1
164 311 2
164 334 1
164 338 1
164 426 4
164 434 1
164 471 2
164 546 2
164 652 1
164 697 1
164 705 3
164 744 1
165 7 1
165 45 1
165 56 1
165 75 2
165 143 1
165 160 2
165 161 1
165 167 1
165 284 1
165 291 5
165 306 1
165 385 1
165 676 1
165 707 1
165 820 1
166 5 1
166 70 1
166 71 1
166 80 4
166 110 1
166 133 4
166 171 1
166 183 1
166 213 1
166 283 6
166 286 3
166 475 2
166 504 1
166 620 3
166 700 1
166 821 4
166 822 1
166 823 1
167 133 1
167 168 2
167 213 2
167 238 1
167 245 2
167 266 1
167 331 1
167 458 1
167 481 2
167 804 1
167 824 1
167 825 1
167 826 2
167 827 1
167 828 1
167 829 1
168 24 1
168 25 1
168 124 1
168 143 1
168 153 4
168 239 1
168 356 2
168 488 1
168 515 1
168 613 1
168 624 2
168 774 1
168 775 1
168 811 3
168 830 1
168 831 3
168 832 1
168 833 1
169 44 1
169 65 1
169 132 1
169 179 1
169 186 2
169 377 1
169 484 1
169 591 1
169 624 2
169 719 1
169 834 1
169 835 1
169 836 1
170 19 1
170 21 1
170 56 2
170 110 1
170 159 1
170 170 1
170 192 1
170 266 2
170 289 1
170 356 3
170 358 1
170 406 4
170 453 1
170 531 1
170 750 1
170 837 1
171 15 1
171 74 1
171 234 1
171 235 1
171 256 1
171 302 1
171 310 1
171 319 1
171 348 1
171 357 2
171 432 1
171 465 2
171 542 1
171 612 1
171 838 5
171 839 1
171 840 1
172 3 1
172 75 2
172 92 1
172 102 1
172 217 1
172 273 1
172 274 2
172 359 1
172 416 1
172 454 1
172 841 1
173 45 2
173 46 1
173 70 1
173 80 2
173 82 2
173 86 1
173 109 1
173 121 1
173 153 1
173 184 2
173 274 1
173 396 1
173 419 2
173 627 3
173 821 1
173 842 1
173 843 1
173 844 1
173 845 1
174 10 8
174 15 2
174 80 9
174 119 1
174 153 5
174 157 1
174 163 1
174 186 1
174 217 1
174 254 4
174 257 1
174 273 1
174 311 1
174 313 8
174 375 1
174 421 2
174 471 2
174 489 1
174 536 2
174 544 1
174 619 2
174 705 1
174 846 1
174 847 1
174 848 2
174 849 1
174 850 1
175 46 2
175 101 2
175 142 2
175 161 1
175 185 1
175 212 1
175 215 1
175 259 2
175 281 1
175 325 1
175 334 1
175 338 2
175 359 1
175 471 1
175 482 1
175 559 1
175 560 1
175 851 1
176 20 1
176 167 1
176 257 1
176 275 1
176 277 1
176 301 2
176 306 1
176 446 1
176 458 2
176 471 2
176 484 1
176 556 4
176 576 3
176 852 5
176 853 2
177 35 1
177 178 1
177 289 1
177 297 1
177 319 1
177 378 3
177 413 2
177 514 1
177 682 3
177 762 1
177 823 1
177 854 2
177 855 1
177 856 3
178 15 2
178 28 6
178 65 1
178 151 4
178 183 1
178 192 4
178 199 7
178 216 1
178 230 2
178 264 4
178 285 2
178 440 1
178 471 1
178 480 1
178 510 1
178 595 1
178 857 1
179 15 1
179 21 2
179 45 1
179 75 1
179 86 1
179 101 1
179 161 2
179 167 1
179 218 1
179 254 3
179 259 1
179 299 1
179 336 1
179 377 1
179 444 1
179 471 1
179 493 1
179 553 1
179 635 1
179 642 1
179 846 1
180 146 9
180 175 1
180 285 2
180 363 2
180 381 1
180 434 1
180 471 2
180 705 1
180 789 1
180 817 1
180 818 2
181 46 4
181 80 2
181 95 1
181 116 5
181 126 3
181 163 1
181 167 1
181 187 2
181 232 1
181 291 3
181 294 2
181 318 2
181 376 3
181 473 2
181 532 2
181 583 1
181 595 4
181 638 2
181 639 1
181 640 1
181 643 1
181 656 1
182 4 1
182 21 5
182 44 1
182 95 6
182 153 3
182 172 1
182 192 1
182 306 1
182 460 4
182 506 5
182 583 1
182 673 2
182 858 3
183 1 1
183 29 1
183 64 1
183 132 6
183 169 1
183 245 2
183 594 3
183 859 1
183 860 4
184 1 1
184 2 1
184 10 2
184 21 1
184 25 1
184 39 1
184 72 1
184 75 1
184 157 1
184 167 1
184 175 1
184 261 1
184 299 1
184 443 1
184 613 1
184 711 1
184 846 1
184 861 1
184 862 1
185 80 7
185 107 1
185 112 1
185 151 1
185 163 1
185 183 1
185 285 1
185 289 1
185 405 1
185 475 1
185 514 1
185 658 1
185 863 1
186 15 1
186 75 1
186 80 5
186 117 1
186 139 2
186 261 1
186 315 1
186 381 1
186 384 2
186 421 1
186 512 1
186 584 1
186 821 2
186 864 1
186 865 3
186 866 1
187 5 1
187 9 3
187 47 1
187 70 1
187 75 1
187 151 1
187 195 1
187 212 1
187 229 1
187 231 1
187 249 1
187 264 1
187 301 1
187 345 1
187 371 1
187 393 1
187 419 2
187 489 1
187 507 1
187 602 1
187 739 1
187 779 1
187 814 1
187 867 1
188 139 4
188 269 3
188 303 1
188 313 2
188 432 1
188 564 2
188 565 3
189 55 1
189 65 1
189 77 1
189 109 1
189 116 2
189 139 2
189 186 1
189 192 1
189 236 3
189 237 1
189 331 1
189 338 2
189 363 1
189 374 1
189 393 1
189 415 2
189 536 1
189 576 1
189 674 1
189 678 2
189 868 2
190 21 3
190 35 4
190 62 1
190 169 1
190 186 2
190 211 2
190 278 1
190 305 1
190 340 1
190 415 2
191 34 1
191 95 1
191 186 3
191 192 3
191 193 4
191 218 3
191 285 2
191 301 1
191 377 1
191 460 1
191 471 4
191 481 3
191 574 1
191 640 1
191 869 2
191 870 1
192 45 2
192 80 2
192 100 1
192 170 1
192 327 1
192 415 1
192 475 1
192 552 1
192 821 2
192 871 1
192 872 1
193 76 1
193 78 1
193 83 1
193 139 1
193 169 1
193 332 1
193 343 1
193 363 1
193 559 1
193 661 1
193 873 2
193 874 1
193 875 1
193 876 1
194 41 1
194 187 1
194 249 1
194 259 2
194 289 3
194 298 2
194 323 1
194 342 1
194 359 1
194 443 1
194 513 2
194 514 1
194 544 1
194 617 1
194 697 1
194 784 1
194 872 1
194 873 1
194 877 1
195 87 1
195 143 2
195 186 2
195 189 1
195 278 1
195 302 1
195 381 2
195 390 1
195 532 1
195 624 2
195 650 2
195 705 1
195 775 5
195 811 1
196 23 4
196 123 4
196 168 1
196 186 2
196 276 2
196 303 1
196 306 1
196 595 1
196 692 3
196 804 1
197 59 3
197 153 1
197 171 1
197 183 1
197 215 1
197 259 1
197 280 4
197 357 2
197 386 1
197 389 1
197 444 1
197 628 1
197 631 1
197 677 2
197 724 1
197 852 1
197 878 2
198 48 1
198 70 1
198 80 1
198 119 1
198 202 1
198 243 1
198 254 3
198 285 5
198 311 1
198 415 7
198 488 1
198 800 3
199 15 3
199 74 1
199 197 1
199 245 3
199 256 2
199 400 1
199 879 3
200 80 1
200 157 1
200 167 1
200 191 1
200 193 3
200 228 1
200 232 1
200 376 1
200 393 1
200 442 2
200 460 1
200 478 2
200 515 1
200 555 1
200 556 2
200 661 2
200 880 1
201 15 1
201 32 1
201 34 1
201 46 1
201 67 1
201 118 1
201 137 2
201 144 3
201 175 2
201 185 1
201 226 1
201 386 1
201 410 1
201 616 1
201 881 1
202 6 1
202 45 4
202 46 4
202 70 1
202 80 7
202 153 1
202 192 1
202 214 2
202 229 8
202 267 2
202 281 3
202 314 1
202 328 1
202 367 1
202 376 1
202 401 1
202 462 1
202 529 2
202 545 1
202 556 2
202 580 2
202 665 4
202 736 2
202 882 2
202 883 1
203 1 5
203 35 1
203 80 6
203 85 1
203 143 1
203 170 1
203 186 2
203 191 1
203 192 2
203 249 3
203 296 1
203 475 3
203 512 1
203 884 1
203 885 1
203 886 2
204 1 1
204 5 1
204 75 1
204 81 1
204 95 4
204 153 2
204 167 1
204 171 1
204 179 1
204 180 1
204 183 1
204 192 4
204 197 1
204 214 5
204 286 3
204 377 2
204 412 6
204 442 9
204 718 1
204 875 1
204 887 1
204 888 1
205 3 1
205 34 1
205 88 1
205 99 1
205 192 1
205 211 3
205 228 1
205 301 1
205 611 2
205 636 1
205 642 1
205 778 3
205 798 1
205 888 2
206 76 1
206 214 2
206 215 1
206 229 1
206 286 1
206 303 1
206 304 2
206 372 1
206 378 1
206 437 4
206 889 1
207 47 1
207 70 2
207 106 2
207 108 1
207 139 2
207 143 1
207 212 1
207 244 1
207 311 1
207 332 2
207 341 1
207 363 1
207 376 1
207 379 1
207 392 1
207 409 1
207 518 1
207 564 2
207 800 1
207 890 1
207 891 1
208 13 1
208 50 1
208 64 1
208 70 2
208 73 1
208 74 1
208 191 9
208 194 2
208 196 2
208 198 4
208 213 1
208 215 1
208 275 1
208 296 1
208 301 1
208 376 1
208 407 1
208 412 1
208 462 1
208 471 1
208 475 4
208 478 1
208 554 1
208 611 1
208 654 1
208 660 1
209 21 2
209 149 1
209 157 1
209 167 1
209 291 1
209 362 1
209 589 1
209 799 3
209 892 1
210 32 1
210 77 1
210 142 1
210 212 1
210 232 2
210 358 1
210 504 1
210 614 1
210 653 1
210 710 1
210 788 1
210 893 1
210 894 7
210 895 1
211 15 5
211 62 1
211 77 2
211 80 8
211 139 3
211 172 6
211 174 1
211 192 1
211 229 2
211 254 1
211 327 1
211 336 4
211 337 1
211 375 1
211 415 2
211 419 3
211 450 5
211 560 1
211 571 2
211 640 1
211 667 1
211 695 1
211 697 1
211 821 3
211 830 1
211 871 2
211 896 1
211 897 1
212 15 1
212 151 3
212 199 3
212 243 1
212 286 1
212 313 2
212 332 1
212 337 1
212 376 1
212 565 2
212 898 2
213 10 1
213 14 1
213 74 1
213 158 2
213 186 2
213 266 1
213 285 2
213 294 2
213 360 1
213 378 2
213 413 4
213 437 3
213 709 1
213 724 4
213 792 1
213 794 1
213 855 1
213 856 1
213 899 2
214 1 1
214 45 1
214 75 1
214 105 1
214 110 1
214 157 1
214 161 1
214 169 1
214 183 1
214 192 2
214 239 1
214 254 1
214 270 1
214 306 3
214 311 2
214 364 1
214 371 1
214 405 2
214 422 1
214 463 2
214 525 2
214 527 1
214 563 1
214 576 1
214 581 1
214 742 1
214 877 2
214 900 2
214 901 2
214 902 1
215 8 1
215 64 1
215 66 1
215 109 1
215 116 1
215 168 1
215 170 1
215 176 3
215 234 1
215 240 1
215 336 1
215 343 2
215 397 2
215 585 1
215 652 1
215 829 1
215 844 1
215 892 1
215 903 5
215 904 1
215 905 1
215 906 1
216 98 2
216 123 2
216 216 1
216 336 1
216 819 1
216 907 1
216 908 1
216 909 1
217 5 1
217 10 1
217 11 1
217 70 1
217 86 1
217 153 1
217 191 1
217 192 1
217 193 1
217 198 1
217 218 1
217 301 1
217 417 1
217 443 1
217 460 1
217 469 1
217 475 1
217 484 1
217 506 1
217 509 1
217 542 1
217 583 1
218 3 3
218 15 2
218 45 1
218 75 4
218 153 3
218 156 1
218 189 1
218 192 1
218 254 1
218 257 1
218 269 1
218 334 1
218 338 2
218 345 1
218 364 1
218 365 1
218 422 1
218 463 1
218 530 1
218 582 2
218 672 1
218 773 1
218 843 1
218 867 1
218 898 1
218 910 2
219 15 3
219 46 2
219 50 1
219 95 2
219 99 1
219 153 1
219 196 2
219 264 7
219 296 1
219 373 1
219 419 1
219 432 1
219 444 2
219 473 1
219 474 3
219 485 1
219 645 3
219 677 3
219 884 1
219 911 1
219 912 1
220 46 1
220 74 1
220 87 1
220 101 1
220 102 7
220 143 5
220 218 1
220 266 1
220 414 1
220 442 2
220 542 1
220 545 1
220 566 1
220 697 6
220 913 1
220 914 2
221 80 5
221 86 1
221 186 1
221 280 1
221 311 1
221 323 1
221 426 1
221 471 1
221 527 1
221 528 1
221 673 1
221 711 1
221 915 3
221 916 1
221 917 1
222 5 1
222 35 3
222 75 4
222 86 1
222 109 1
222 143 1
222 191 1
222 192 1
222 208 1
222 235 1
222 254 2
222 282 2
222 285 1
222 332 1
222 356 1
222 375 1
222 405 1
222 408 1
222 483 1
222 512 1
222 528 1
222 584 2
222 694 1
222 704 6
222 838 2
222 871 1
222 918 1
223 21 2
223 64 2
223 153 1
223 160 1
223 191 1
223 222 6
223 232 2
223 303 2
223 331 1
223 358 9
223 377 1
223 518 1
223 520 1
223 569 2
223 589 2
223 704 15
224 82 1
224 86 1
224 139 1
224 141 1
224 159 1
224 175 3
224 177 1
224 178 1
224 185 1
224 192 5
224 231 1
224 237 1
224 266 1
224 269 1
224 306 1
224 313 1
224 335 1
224 347 2
224 363 1
224 471 1
224 534 1
224 565 1
224 719 1
224 806 1
224 919 1
224 920 1
225 15 2
225 20 1
225 71 3
225 77 1
225 90 2
225 151 1
225 198 1
225 215 1
225 259 4
225 266 1
225 273 1
225 301 1
225 302 1
225 376 3
225 415 1
225 471 2
225 473 1
225 484 1
225 486 1
225 505 1
225 561 1
225 567 1
225 678 2
225 801 1
225 918 1
226 5 1
226 8 1
226 25 1
226 29 6
226 45 6
226 52 1
226 66 4
226 68 1
226 75 3
226 80 4
226 116 1
226 154 1
226 157 2
226 160 1
226 175 1
226 185 1
226 192 2
226 202 1
226 229 1
226 254 5
226 311 7
226 312 2
226 331 2
226 363 1
226 366 1
226 393 1
226 396 1
226 493 1
226 544 1
226 627 4
226 639 2
226 697 1
226 704 1
226 757 1
226 802 1
226 804 1
226 866 2
226 876 1
226 921 2
226 922 2
226 923 1
227 5 2
227 40 1
227 85 1
227 187 1
227 215 1
227 249 1
227 257 1
227 285 1
227 353 1
227 359 1
227 388 1
227 446 1
227 529 4
227 606 2
227 616 1
227 618 1
227 660 1
227 736 1
227 791 1
227 835 1
227 924 2
227 925 1
227 926 4
227 927 1
227 928 1
228 75 1
228 203 3
228 282 1
228 526 1
228 649 1
228 734 1
228 812 1
228 908 1
229 1 1
229 7 1
229 10 1
229 25 1
229 44 1
229 85 1
229 139 1
229 143 1
229 153 5
229 254 1
229 289 1
229 303 1
229 359 1
229 446 1
229 465 1
229 534 1
229 570 1
229 580 1
229 642 1
229 721 1
229 764 1
229 791 1
229 792 1
229 794 4
229 929 3
229 930 1
229 931 1
230 45 1
230 112 2
230 151 2
230 160 1
230 175 4
230 224 1
230 244 4
230 254 4
230 259 1
230 283 1
230 286 5
230 311 5
230 372 2
230 408 1
230 457 1
230 495 1
230 542 1
230 798 3
230 804 1
230 932 5
230 933 3
230 934 2
230 935 1
230 936 1
231 62 1
231 178 1
231 187 1
231 193 2
231 209 1
231 285 1
231 294 1
231 442 2
231 489 2
231 506 1
231 560 1
231 574 1
231 595 3
231 604 2
231 653 1
231 662 1
231 806 1
231 937 2
231 938 1
231 939 1
232 35 2
232 154 2
232 203 1
232 286 2
232 334 1
232 775 2
232 877 1
232 940 2
233 20 2
233 32 1
233 65 1
233 74 1
233 175 1
233 307 4
233 378 4
233 531 1
233 772 3
233 941 1
233 942 1
234 20 1
234 77 1
234 159 3
234 178 1
234 203 1
234 256 1
234 269 2
234 279 1
234 300 1
234 307 1
234 308 1
234 378 3
234 381 1
234 437 2
234 439 1
234 612 1
234 871 1
235 71 1
235 74 1
235 117 1
235 132 1
235 182 1
235 225 1
235 238 1
235 322 1
235 388 2
235 471 1
235 661 1
235 700 1
235 729 1
235 740 1
235 753 1
235 943 1
235 944 1
235 945 1
235 946 1
236 76 2
236 78 1
236 79 3
236 87 1
236 100 1
236 178 1
236 191 2
236 205 2
236 218 1
236 285 2
236 379 2
236 403 1
236 460 1
236 553 2
236 556 1
236 583 1
236 597 1
236 606 2
236 648 1
236 660 2
236 705 1
236 728 1
236 814 3
236 947 1
236 948 8
236 949 1
237 28 1
237 74 1
237 75 1
237 126 1
237 196 3
237 212 2
237 238 1
237 259 3
237 363 1
237 412 2
237 471 1
237 473 1
237 505 1
237 552 2
237 616 3
237 678 1
237 744 1
238 5 1
238 13 3
238 65 1
238 86 1
238 95 1
238 143 1
238 148 2
238 153 6
238 238 1
238 251 1
238 278 1
238 282 1
238 358 5
238 405 1
238 466 1
238 530 1
238 621 1
238 652 1
238 950 1
238 951 1
238 952 1
239 50 5
239 75 2
239 170 1
239 187 1
239 189 1
239 277 1
239 297 1
239 310 1
239 335 1
239 350 1
239 405 1
239 471 1
239 480 1
239 512 1
239 595 4
239 632 1
239 692 4
239 804 1
239 814 3
239 891 1
239 938 1
239 953 1
239 954 2
240 19 1
240 159 1
240 192 1
240 277 1
240 289 1
240 356 2
240 531 1
240 955 1
241 64 1
241 76 1
241 77 2
241 80 3
241 82 1
241 157 1
241 180 1
241 270 3
241 303 1
241 694 1
241 821 3
242 27 1
242 76 1
242 80 2
242 92 1
242 105 1
242 168 1
242 170 3
242 187 1
242 259 1
242 279 3
242 316 1
242 350 1
242 375 1
242 473 1
242 532 2
242 554 1
242 595 1
242 708 3
242 716 1
242 798 2
242 956 2
242 957 7
242 958 1
242 959 1
243 3 4
243 21 3
243 48 5
243 70 2
243 101 2
243 102 1
243 103 2
243 183 1
243 186 1
243 200 2
243 218 1
243 229 1
243 269 1
243 365 1
243 920 1
243 960 2
244 65 1
244 74 1
244 102 4
244 150 2
244 178 1
244 215 3
244 266 1
244 419 4
244 430 1
244 442 1
244 536 1
244 667 1
244 803 1
244 947 1
244 958 1
244 960 1
244 961 1
245 13 1
245 21 1
245 64 1
245 69 2
245 81 1
245 191 4
245 194 3
245 198 2
245 274 1
245 301 2
245 376 1
245 412 1
245 430 1
245 462 1
245 471 2
245 472 1
245 475 7
245 486 1
245 489 3
245 583 1
245 611 1
245 662 2
245 770 1
245 912 1
246 80 6
246 82 2
246 83 3
246 151 2
246 187 2
246 234 1
246 285 2
246 371 2
246 475 1
246 514 1
246 652 3
247 10 2
247 59 1
247 70 1
247 80 2
247 143 1
247 160 1
247 230 1
247 285 1
247 371 1
247 442 1
247 515 2
247 517 2
247 528 1
247 764 1
248 8 1
248 73 1
248 74 1
248 82 3
248 110 1
248 169 1
248 229 2
248 238 1
248 266 1
248 300 1
248 302 1
248 305 1
248 327 1
248 331 1
248 343 1
248 348 4
248 359 2
248 417 1
248 419 4
248 437 2
248 504 2
248 661 1
248 705 1
248 769 1
248 838 3
248 962 2
249 4 1
249 19 1
249 21 2
249 40 2
249 45 1
249 87 1
249 95 2
249 142 1
249 186 1
249 218 1
249 244 1
249 281 1
249 302 1
249 359 2
249 606 2
249 963 2
250 24 2
250 25 1
250 29 1
250 35 3
250 65 2
250 71 1
250 158 2
250 167 1
250 203 1
250 249 1
250 266 1
250 361 1
250 364 3
250 378 1
250 404 1
250 534 1
250 549 2
250 579 1
250 661 1
250 675 2
250 832 1
251 13 1
251 240 1
251 266 1
251 299 1
251 512 2
251 515 1
251 964 1
252 15 1
252 59 1
252 82 4
252 132 4
252 139 1
252 195 1
252 205 1
252 241 2
252 251 1
252 303 1
252 346 4
252 375 1
252 436 1
252 489 1
252 542 1
252 602 1
252 965 1
252 966 1
252 967 1
253 1 1
253 13 1
253 14 1
253 21 1
253 25 1
253 27 1
253 42 2
253 46 2
253 86 1
253 95 2
253 126 1
253 153 5
253 178 1
253 218 1
253 274 1
253 314 1
253 318 4
253 372 1
253 388 1
253 442 1
253 473 1
253 556 2
253 572 2
253 587 1
253 632 1
253 636 1
253 644 1
253 647 1
253 870 1
253 968 1
253 969 1
254 10 1
254 21 1
254 35 1
254 66 1
254 75 1
254 141 1
254 153 1
254 179 1
254 195 1
254 213 1
254 234 1
254 285 1
254 286 1
254 366 1
254 388 1
254 405 1
254 453 1
254 526 1
254 704 2
255 77 2
255 144 1
255 179 1
255 238 1
255 730 1
255 758 4
255 803 1
255 821 4
255 865 1
256 1 1
256 50 2
256 55 1
256 59 1
256 102 1
256 125 1
256 143 1
256 193 1
256 241 1
256 318 1
256 340 1
256 405 2
256 471 10
256 472 1
256 478 1
256 484 1
256 496 1
256 661 1
256 770 1
256 880 1
256 908 2
256 970 1
256 971 1
257 44 1
257 179 1
257 214 1
257 302 1
257 307 3
257 378 6
257 437 1
257 527 1
257 812 1
257 972 1
257 973 1
258 67 1
258 74 1
258 75 5
258 127 4
258 180 1
258 185 1
258 186 1
258 190 1
258 238 1
258 249 5
258 401 3
258 594 1
258 803 1
258 807 2
258 876 1
259 1 1
259 35 1
259 70 1
259 80 1
259 143 1
259 170 1
259 175 1
259 178 1
259 229 1
259 258 1
259 319 3
259 325 1
259 329 1
259 511 2
259 685 6
259 718 1
259 725 1
259 780 2
259 784 1
259 789 1
259 810 1
259 862 1
259 928 1
260 27 1
260 107 1
260 139 1
260 143 1
260 168 2
260 254 1
260 319 4
260 332 1
260 375 1
260 378 1
260 413 1
260 433 1
260 435 1
260 466 1
260 468 1
260 708 1
260 724 6
260 725 1
260 960 2
260 974 1
261 10 1
261 25 1
261 84 1
261 143 1
261 153 3
261 158 1
261 178 1
261 225 2
261 273 1
261 356 1
261 512 1
261 542 1
261 544 2
261 682 1
261 775 1
261 856 1
261 975 1
261 976 1
262 7 1
262 10 1
262 21 3
262 81 1
262 86 1
262 92 1
262 175 1
262 203 1
262 215 1
262 232 1
262 236 2
262 266 1
262 293 1
262 303 2
262 334 1
262 360 1
262 378 5
262 419 1
262 439 1
262 449 3
262 484 1
262 508 1
262 589 2
262 647 1
262 673 1
262 809 1
262 817 2
262 818 2
262 968 1
262 977 1
263 1 1
263 95 2
263 153 1
263 197 2
263 211 1
263 214 5
263 286 1
263 303 1
263 364 1
263 442 5
263 574 1
263 619 1
263 637 2
263 705 1
264 64 1
264 80 2
264 123 3
264 158 4
264 239 1
264 306 1
264 319 1
264 335 1
264 581 1
264 896 1
265 3 1
265 25 1
265 45 2
265 60 2
265 75 1
265 76 1
265 77 1
265 107 2
265 117 1
265 127 4
265 157 8
265 167 1
265 204 2
265 216 1
265 218 1
265 235 1
265 257 2
265 306 1
265 312 2
265 315 1
265 332 1
265 375 1
265 382 1
265 394 1
265 412 1
265 471 1
265 489 1
265 633 1
265 636 1
265 648 1
265 664 1
265 971 1
265 978 1
265 979 1
265 980 1
265 981 1
265 982 1
266 1 1
266 5 1
266 21 1
266 32 1
266 52 2
266 64 1
266 70 2
266 100 1
266 121 1
266 159 1
266 175 1
266 227 1
266 301 1
266 325 1
266 332 1
266 631 1
266 642 1
266 667 2
266 738 6
266 785 1
267 1 1
267 21 1
267 32 1
267 47 4
267 62 2
267 160 3
267 183 2
267 186 2
267 187 1
267 193 4
267 309 1
267 318 1
267 388 1
267 415 1
267 478 1
267 484 1
267 506 9
267 527 1
267 560 1
267 660 1
267 876 2
267 983 1
267 984 8
268 1 5
268 41 1
268 74 1
268 102 2
268 168 1
268 178 1
268 187 1
268 298 1
268 318 1
268 328 1
268 381 1
268 392 2
268 414 1
268 442 1
268 471 1
268 512 2
268 595 2
268 600 2
268 644 1
268 654 2
268 673 4
268 698 1
268 914 1
268 985 1
268 986 2
269 75 1
269 102 3
269 153 3
269 199 1
269 231 1
269 234 1
269 264 1
269 277 2
269 377 1
269 381 1
269 463 1
269 652 1
269 754 1
269 846 1
269 987 1
270 2 2
270 29 3
270 35 1
270 79 1
270 87 1
270 154 1
270 175 3
270 203 1
270 232 1
270 256 1
270 303 1
270 335 1
270 526 1
270 606 1
270 988 1
270 989 1
271 3 1
271 22 1
271 32 1
271 45 1
271 80 4
271 139 1
271 141 1
271 160 1
271 161 1
271 244 2
271 281 1
271 330 1
271 332 1
271 576 1
271 990 1
272 41 1
272 80 1
272 110 1
272 117 1
272 142 1
272 163 1
272 183 1
272 186 1
272 212 2
272 213 1
272 252 2
272 257 1
272 272 1
272 274 1
272 278 1
272 302 1
272 303 1
272 363 2
272 375 1
272 426 1
272 514 1
272 515 1
272 543 1
272 560 1
272 583 1
272 644 1
272 670 1
272 699 1
272 719 1
272 797 1
272 897 1
272 907 1
272 987 1
272 991 1
273 114 1
273 138 1
273 179 1
273 189 1
273 313 3
273 461 1
273 565 1
273 992 2
273 993 1
274 35 4
274 66 1
274 75 1
274 110 1
274 238 1
274 256 1
274 306 1
274 345 1
274 685 5
275 5 1
275 139 2
275 188 2
275 340 1
275 463 2
275 535 1
275 711 3
275 917 1
276 45 1
276 63 1
276 80 4
276 105 1
276 109 1
276 245 1
276 298 2
276 366 1
276 393 1
276 407 1
276 415 1
276 421 1
276 512 1
276 584 2
277 13 1
277 70 1
277 75 1
277 81 2
277 87 1
277 88 1
277 151 1
277 217 1
277 260 4
277 375 1
277 511 1
277 572 2
277 693 1
277 701 1
277 736 1
277 816 1
278 88 1
278 105 1
278 170 3
278 206 3
278 257 1
278 264 2
278 277 1
278 311 2
278 357 1
278 359 1
278 364 4
278 375 1
278 384 1
278 412 2
278 415 1
278 504 1
278 511 1
278 512 1
278 566 1
278 708 2
278 725 1
279 14 1
279 55 1
279 60 2
279 73 1
279 116 2
279 132 6
279 151 1
279 172 4
279 241 6
279 305 4
279 311 5
279 343 1
279 359 1
279 372 2
279 514 1
279 584 1
279 746 1
279 966 1
280 70 1
280 80 1
280 95 1
280 143 1
280 163 1
280 168 2
280 185 1
280 209 2
280 231 1
280 259 1
280 296 2
280 319 1
280 381 1
280 694 1
280 697 1
280 705 1
280 836 1
280 848 1
280 883 3
281 80 4
281 98 1
281 109 1
281 168 1
281 178 1
281 285 1
281 335 1
281 342 1
281 397 4
281 475 1
281 617 1
281 698 1
281 814 1
281 961 1
282 85 1
282 97 1
282 102 1
282 143 1
282 158 1
282 171 1
282 193 1
282 301 2
282 378 9
282 994 1
283 21 1
283 50 4
283 55 1
283 95 1
283 186 1
283 187 2
283 192 2
283 238 1
283 243 3
283 249 1
283 285 3
283 292 1
283 340 1
283 606 1
283 640 1
283 645 2
283 970 1
284 15 1
284 32 2
284 59 1
284 62 1
284 64 1
284 66 1
284 102 1
284 127 1
284 132 1
284 160 1
284 179 1
284 264 1
284 285 2
284 334 2
284 471 2
284 480 1
284 504 1
284 527 1
284 642 1
285 80 1
285 110 1
285 114 1
285 116 1
285 233 1
285 234 1
285 257 1
285 267 1
285 303 2
285 351 1
285 421 1
285 426 1
285 541 1
285 601 1
285 626 1
285 639 1
285 695 1
285 995 1
285 996 1
285 997 1
286 10 2
286 21 2
286 70 1
286 75 2
286 80 1
286 92 1
286 96 1
286 177 1
286 178 1
286 293 2
286 478 1
286 665 2
286 799 2
286 852 1
286 968 2
286 998 1
287 20 1
287 80 1
287 82 2
287 86 2
287 94 3
287 109 1
287 212 2
287 266 2
287 307 2
287 319 1
287 335 1
287 358 1
287 378 1
287 437 2
287 514 1
287 705 1
287 972 1
287 999 1
287 1000 1
288 82 1
288 179 1
288 186 1
288 245 1
288 286 2
288 306 1
288 340 1
288 1001 1
289 62 1
289 67 1
289 73 1
289 100 1
289 132 2
289 181 1
289 212 2
289 229 1
289 506 10
289 527 5
289 594 1
289 604 1
289 661 1
289 672 1
289 688 1
289 700 1
289 781 1
289 957 2
289 1002 1
290 34 2
290 55 2
290 95 1
290 186 3
290 226 1
290 232 1
290 277 2
290 460 1
290 484 1
290 494 1
290 542 1
290 632 1
290 636 3
290 809 1
290 853 1
290 905 1
290 939 5
290 997 8
290 1003 1
290 1004 2
291 45 1
291 80 1
291 82 1
291 109 1
291 212 1
291 267 1
291 274 1
291 278 1
291 359 3
291 435 3
291 466 1
291 589 1
291 659 3
291 667 1
291 779 1
291 1005 1
291 1006 2
292 13 1
292 56 1
292 102 1
292 178 1
292 195 1
292 215 3
292 218 1
292 256 1
292 359 2
292 388 1
292 415 1
292 435 5
292 442 1
292 444 3
292 727 1
292 734 1
292 810 1
292 967 1
292 978 1
292 1007 1
292 1008 1
293 1 2
293 21 1
293 65 1
293 96 1
293 117 1
293 161 1
293 167 1
293 179 1
293 186 1
293 192 3
293 215 1
293 266 2
293 269 2
293 299 1
293 300 2
293 336 2
293 378 2
293 406 4
293 413 1
293 415 1
293 424 2
293 512 1
293 584 1
293 612 2
293 722 1
294 35 1
294 70 1
294 75 1
294 80 1
294 82 2
294 86 1
294 94 2
294 109 1
294 163 1
294 226 1
294 254 1
294 319 1
294 335 1
294 358 1
294 378 1
294 384 1
294 512 1
294 514 1
294 705 1
294 999 1
294 1000 1
294 1009 1
295 59 1
295 153 1
295 186 1
295 259 4
295 280 8
295 303 1
295 346 3
295 357 1
295 378 5
295 419 3
295 434 1
295 566 1
295 647 1
295 697 1
295 724 1
295 891 1
295 929 1
295 1010 5
296 65 2
296 95 1
296 102 3
296 218 2
296 235 1
296 356 1
296 376 1
296 442 3
296 471 1
296 561 1
296 750 2
297 75 1
297 95 1
297 120 1
297 168 1
297 192 1
297 412 1
297 509 1
297 556 1
297 618 1
297 642 1
297 653 1
297 796 1
297 807 1
297 820 1
297 870 2
297 1011 1
297 1012 1
298 64 1
298 80 1
298 158 1
298 372 1
298 382 1
298 419 2
298 424 2
298 466 1
298 764 1
298 832 1
298 877 1
298 952 1
298 978 1
299 41 1
299 45 2
299 80 1
299 192 2
299 195 1
299 270 1
299 311 2
299 332 1
299 364 3
299 397 1
299 404 1
299 422 1
299 464 1
299 525 1
299 546 2
299 744 1
299 860 1
299 915 1
299 1013 1
300 8 1
300 105 1
300 109 1
300 125 1
300 151 1
300 163 1
300 310 2
300 315 1
300 345 1
300 484 1
300 509 3
300 554 2
300 561 1
300 616 1
300 686 2
300 809 1
300 843 1
300 1014 1
300 1015 1
300 1016 1
301 86 1
301 143 1
301 153 2
301 225 4
301 528 1
301 609 1
301 670 1
301 775 2
301 855 2
301 856 1
301 1017 1
302 10 1
302 20 1
302 53 1
302 75 1
302 81 3
302 95 1
302 303 1
302 388 2
302 449 1
302 450 2
302 816 1
302 929 1
302 1018 2
302 1019 1
303 75 3
303 80 2
303 186 1
303 215 2
303 232 1
303 296 4
303 305 1
303 311 2
303 340 1
303 411 1
303 481 1
303 551 1
303 894 1
303 910 2
304 65 1
304 224 1
304 233 1
304 234 1
304 237 1
304 245 1
304 264 1
304 402 2
304 440 2
304 481 1
304 515 2
304 797 1
304 1020 1
305 77 2
305 110 1
305 132 1
305 145 2
305 150 3
305 183 2
305 185 1
305 230 2
305 238 2
305 259 1
305 323 3
305 423 1
305 505 2
305 510 1
305 513 1
305 514 1
305 762 1
305 798 4
306 20 2
306 50 3
306 70 3
306 194 3
306 198 3
306 212 1
306 224 1
306 227 1
306 418 3
306 445 4
306 447 2
306 471 1
306 475 4
306 478 1
306 487 1
306 545 2
306 654 1
306 672 2
306 933 1
306 1021 2
307 34 1
307 45 1
307 68 1
307 70 1
307 75 1
307 77 1
307 104 2
307 106 1
307 109 1
307 153 1
307 237 1
307 238 1
307 240 1
307 674 1
307 728 1
307 800 1
307 837 1
307 1022 1
308 54 1
308 64 1
308 74 1
308 117 1
308 168 1
308 170 1
308 264 2
308 269 2
308 359 1
308 539 1
308 571 1
308 595 1
308 942 1
308 967 1
309 52 1
309 70 1
309 266 3
309 286 1
309 371 2
309 378 2
309 439 3
309 511 1
309 514 3
309 515 2
309 581 1
309 894 1
310 10 1
310 11 2
310 56 3
310 75 1
310 153 1
310 206 2
310 274 1
310 303 1
310 334 1
310 358 10
310 400 1
310 653 1
310 787 1
310 929 1
310 939 3
311 7 1
311 21 1
311 85 1
311 260 2
311 266 1
311 268 1
311 589 5
311 608 1
311 764 1
311 792 1
311 816 2
311 976 1
311 1023 1
311 1024 1
312 1 2
312 20 1
312 37 2
312 41 2
312 42 1
312 45 1
312 214 2
312 259 1
312 286 3
312 314 1
312 356 1
312 377 1
312 532 7
312 592 1
312 861 1
312 962 3
312 1025 3
312 1026 1
313 14 1
313 21 1
313 32 1
313 35 1
313 41 1
313 45 2
313 65 1
313 66 1
313 75 2
313 106 1
313 109 2
313 110 1
313 139 2
313 141 1
313 151 1
313 153 1
313 157 1
313 170 1
313 188 1
313 189 1
313 212 1
313 229 1
313 232 2
313 237 1
313 245 1
313 269 1
313 281 2
313 285 1
313 336 1
313 366 1
313 378 1
313 411 1
313 429 1
313 458 1
313 464 1
313 512 2
313 814 1
313 821 1
313 829 1
313 861 2
313 1027 1
313 1028 1
314 11 1
314 44 1
314 66 1
314 69 3
314 74 1
314 111 1
314 183 1
314 285 2
314 303 1
314 318 2
314 368 2
314 471 1
314 489 3
314 636 1
314 639 1
314 876 1
314 888 2
314 1018 2
315 13 4
315 48 6
315 50 3
315 71 2
315 82 1
315 96 1
315 103 1
315 177 4
315 190 1
315 218 1
315 227 2
315 234 2
315 238 1
315 264 1
315 277 1
315 388 1
315 393 1
315 442 1
315 484 3
315 670 1
315 852 1
315 1001 1
315 1029 1
315 1030 2
315 1031 1
316 1 2
316 53 1
316 70 6
316 80 3
316 109 1
316 185 1
316 186 1
316 216 1
316 285 3
316 336 6
316 376 1
316 397 1
316 512 2
316 676 1
316 849 1
317 76 1
317 130 1
317 156 1
317 157 1
317 158 1
317 161 3
317 167 2
317 192 1
317 245 3
317 252 1
317 277 1
317 283 1
317 301 1
317 306 1
317 442 1
317 446 5
317 455 3
317 458 2
317 471 2
317 574 1
317 576 3
317 580 1
317 635 1
317 674 3
317 852 5
317 930 4
317 1032 1
318 19 1
318 46 2
318 102 1
318 109 1
318 277 4
318 285 1
318 378 1
318 419 2
318 743 1
318 951 1
318 1006 4
318 1033 1
319 32 1
319 74 1
319 76 1
319 78 1
319 102 1
319 142 1
319 175 1
319 199 1
319 216 2
319 259 1
319 266 1
319 301 1
319 336 1
319 527 2
319 611 1
319 661 1
319 769 1
319 798 1
320 19 1
320 28 6
320 32 1
320 62 2
320 64 2
320 121 1
320 169 2
320 331 3
320 442 1
320 507 1
320 680 1
320 715 2
320 886 2
320 1034 1
321 15 2
321 64 1
321 80 2
321 114 1
321 138 1
321 151 1
321 158 3
321 189 1
321 199 3
321 200 2
321 239 1
321 279 1
321 305 1
321 306 1
321 343 4
321 395 1
321 590 1
321 595 1
321 753 1
321 800 1
321 920 3
321 1035 1
322 21 6
322 75 1
322 77 3
322 98 1
322 99 5
322 102 2
322 143 3
322 151 1
322 170 1
322 185 1
322 196 1
322 378 4
322 451 1
322 474 1
322 485 1
322 489 1
322 621 1
322 661 2
323 50 6
323 75 1
323 95 3
323 102 1
323 131 1
323 153 1
323 163 6
323 180 1
323 186 1
323 187 1
323 218 6
323 232 1
323 239 1
323 257 1
323 340 2
323 377 1
323 425 1
323 471 9
323 556 1
323 601 1
323 661 11
323 747 3
323 987 1
323 1018 1
323 1036 3
324 77 2
324 158 1
324 187 1
324 267 1
324 291 4
324 345 1
324 446 1
324 850 1
325 71 1
325 74 3
325 189 1
325 197 2
325 245 2
325 283 2
325 348 1
326 5 1
326 48 1
326 80 1
326 117 1
326 122 2
326 163 1
326 170 1
326 183 1
326 227 5
326 244 1
326 249 2
326 259 1
326 274 1
326 347 2
326 359 1
326 392 1
326 470 1
326 510 1
326 529 2
326 563 1
326 613 1
326 649 1
326 725 4
326 742 5
326 798 2
326 953 1
326 1037 1
326 1038 1
326 1039 2
327 1 3
327 70 1
327 79 1
327 81 1
327 91 1
327 98 3
327 153 2
327 171 2
327 172 1
327 192 2
327 294 1
327 344 1
327 363 1
327 418 1
327 446 6
327 512 1
327 532 2
327 594 2
327 650 2
327 743 1
327 904 1
327 1040 1
327 1041 2
328 15 2
328 186 1
328 205 1
328 229 1
328 256 1
328 300 4
328 301 1
328 415 1
328 462 3
328 484 1
328 686 1
328 809 2
328 880 1
328 939 1
329 51 1
329 75 1
329 77 1
329 101 2
329 102 1
329 163 1
329 167 1
329 178 1
329 187 1
329 192 1
329 218 2
329 229 1
329 238 1
329 264 1
329 412 1
329 415 3
329 438 1
329 442 1
329 595 7
329 607 1
329 618 2
329 640 1
329 645 2
329 810 1
329 853 4
329 1042 1
330 27 1
330 47 1
330 75 1
330 88 1
330 92 1
330 95 1
330 126 1
330 170 1
330 178 1
330 183 1
330 186 1
330 193 2
330 194 9
330 195 1
330 212 1
330 229 1
330 264 4
330 274 3
330 302 1
330 317 1
330 339 1
330 344 1
330 417 2
330 419 1
330 462 1
330 484 1
330 574 1
330 610 2
330 677 1
330 708 2
330 798 1
330 875 1
330 944 1
330 1043 1
330 1044 1
331 14 1
331 35 1
331 74 1
331 191 1
331 252 1
331 256 1
331 266 5
331 323 1
331 338 1
331 413 2
331 454 1
331 464 1
331 528 2
331 673 2
331 705 1
331 724 1
331 789 2
331 806 1
331 976 2
332 40 1
332 64 1
332 75 1
332 80 1
332 109 1
332 139 1
332 143 1
332 219 1
332 254 1
332 285 1
332 397 1
332 427 4
332 434 1
332 489 1
332 499 1
332 503 1
332 515 1
332 576 1
332 658 1
332 971 1
332 1045 1
333 1 2
333 27 1
333 32 2
333 45 3
333 62 1
333 66 2
333 75 2
333 104 1
333 126 1
333 171 1
333 177 1
333 218 1
333 252 1
333 275 1
333 278 1
333 281 1
333 301 1
333 303 1
333 331 1
333 375 1
333 393 1
333 405 1
333 417 1
333 511 1
333 530 1
333 710 1
333 858 1
333 1046 1
333 1047 2
334 5 1
334 35 1
334 56 1
334 85 1
334 96 1
334 218 1
334 238 1
334 256 1
334 266 1
334 269 1
334 336 1
334 415 7
334 437 1
334 478 1
334 580 1
334 737 1
334 753 1
334 992 1
334 1035 1
334 1048 1
335 5 1
335 44 1
335 60 1
335 74 1
335 86 2
335 95 1
335 98 2
335 99 7
335 102 2
335 105 3
335 153 2
335 169 1
335 171 1
335 178 1
335 187 1
335 191 1
335 196 1
335 264 3
335 277 1
335 331 1
335 378 1
335 392 1
335 419 1
335 442 5
335 444 1
335 451 1
335 460 1
335 474 3
335 645 1
335 796 1
335 1049 1
335 1050 1
336 13 1
336 21 2
336 35 2
336 50 1
336 95 2
336 102 3
336 179 1
336 186 1
336 205 1
336 215 1
336 277 1
336 291 1
336 419 2
336 458 1
336 460 1
336 484 1
336 566 1
336 621 1
336 647 1
336 667 1
336 799 2
336 817 2
336 1051 1
337 21 1
337 34 1
337 65 3
337 107 1
337 158 1
337 160 1
337 384 1
337 489 1
337 515 4
337 574 1
337 700 1
337 1052 4
338 10 2
338 30 2
338 71 1
338 84 2
338 85 1
338 89 1
338 139 1
338 158 1
338 186 2
338 191 2
338 207 1
338 260 1
338 279 1
338 488 1
338 553 3
338 556 1
338 559 1
338 794 1
338 1006 7
338 1053 1
338 1054 1
339 63 1
339 104 9
339 168 1
339 179 1
339 231 2
339 244 3
339 256 1
339 259 1
339 375 3
339 527 1
339 586 1
339 594 4
339 790 1
339 891 1
339 1055 11
339 1056 2
340 14 1
340 97 1
340 102 1
340 150 6
340 256 1
340 273 1
340 378 2
340 419 1
340 432 1
340 437 4
340 595 1
341 1 4
341 3 1
341 29 1
341 39 3
341 71 1
341 195 2
341 201 1
341 254 2
341 315 1
341 338 1
341 388 1
341 397 3
341 454 2
341 505 2
341 1057 1
341 1058 1
342 11 1
342 151 3
342 183 1
342 216 1
342 278 1
342 279 1
342 296 1
342 357 2
342 504 1
342 511 1
342 738 2
342 781 1
343 3 1
343 46 2
343 101 2
343 161 1
343 212 1
343 222 1
343 274 1
343 291 1
343 306 1
343 334 1
343 338 1
343 381 1
343 559 1
343 690 1
343 707 1
344 10 1
344 21 3
344 39 1
344 70 2
344 80 1
344 95 1
344 101 1
344 102 1
344 103 2
344 160 1
344 161 4
344 167 1
344 175 8
344 177 1
344 187 1
344 218 1
344 306 1
344 316 1
344 813 1
344 1059 1
345 41 1
345 80 1
345 88 1
345 105 1
345 179 1
345 192 1
345 259 1
345 286 1
345 289 1
345 299 1
345 325 1
345 371 1
345 458 2
345 513 2
345 514 1
345 801 1
345 1056 1
345 1060 1
345 1061 1
345 1062 1
345 1063 1
345 1064 1
345 1065 1
345 1066 1
346 95 3
346 205 1
346 229 1
346 230 1
346 238 1
346 251 1
346 259 2
346 305 1
346 312 1
346 419 4
346 497 1
346 505 1
346 583 1
346 667 1
346 812 1
346 852 2
346 960 1
346 1067 1
347 5 1
347 34 1
347 55 1
347 135 1
347 160 1
347 193 3
347 215 1
347 256 1
347 266 5
347 285 1
347 301 2
347 338 1
347 393 2
347 403 1
347 937 1
347 939 1
348 15 3
348 21 3
348 25 1
348 56 1
348 149 1
348 167 1
348 277 1
348 301 1
348 356 2
348 378 2
348 442 4
348 481 2
348 568 1
348 711 3
348 806 1
348 915 2
348 967 1
349 21 1
349 74 1
349 187 2
349 191 2
349 224 1
349 238 1
349 249 1
349 259 4
349 471 1
349 478 1
349 610 8
349 654 1
349 677 6
349 700 1
349 1068 1
349 1069 3
350 64 1
350 87 1
350 170 1
350 192 1
350 216 5
350 220 1
350 240 1
350 285 1
350 301 2
350 335 1
350 382 2
350 393 1
350 442 1
350 527 6
350 984 2
350 1070 1
350 1071 6
351 3 1
351 198 4
351 215 2
351 412 6
351 426 1
351 442 1
351 447 2
351 463 2
351 484 1
351 488 1
351 611 1
351 918 1
351 1072 5
352 5 1
352 19 1
352 60 1
352 158 1
352 168 1
352 183 1
352 185 1
352 187 1
352 190 1
352 215 1
352 259 5
352 280 2
352 301 1
352 318 1
352 332 1
352 406 1
352 414 1
352 422 2
352 508 1
352 619 1
352 631 1
352 662 1
352 672 1
352 754 1
352 917 1
352 939 1
352 1073 1
353 75 1
353 143 4
353 197 1
353 252 1
353 310 1
353 442 3
353 460 1
353 578 1
353 587 2
353 595 1
353 600 1
353 632 1
353 637 1
353 642 1
353 673 3
353 686 1
353 927 1
353 985 1
353 1054 2
353 1074 1
354 21 2
354 86 1
354 92 1
354 186 1
354 198 1
354 224 1
354 238 2
354 249 1
354 250 1
354 254 2
354 293 1
354 320 1
354 412 5
354 471 1
354 481 1
354 543 1
354 569 2
354 744 2
354 947 1
355 13 1
355 50 1
355 77 1
355 101 1
355 103 1
355 160 1
355 161 2
355 177 1
355 222 2
355 291 2
355 318 1
355 334 1
355 366 2
355 419 2
355 460 1
355 465 1
355 542 1
355 559 1
355 621 1
355 657 2
355 1008 1
355 1029 2
355 1075 1
355 1076 1
355 1077 1
356 43 2
356 76 1
356 87 1
356 88 1
356 139 1
356 153 1
356 158 2
356 252 1
356 256 1
356 269 2
356 285 2
356 306 1
356 363 2
356 415 4
356 421 1
356 463 1
356 542 1
356 548 1
356 571 1
356 580 2
356 584 2
356 616 2
356 800 2
356 1078 1
357 139 1
357 151 1
357 168 2
357 289 1
357 436 3
357 475 1
357 514 1
357 612 1
357 825 1
357 874 1
357 999 2
357 1011 1
358 77 1
358 87 1
358 110 1
358 116 1
358 139 3
358 151 1
358 158 1
358 189 1
358 190 1
358 199 3
358 216 1
358 239 1
358 273 1
358 306 1
358 313 3
358 374 2
358 415 2
358 426 1
358 564 1
358 565 2
358 580 1
358 605 1
358 812 1
359 13 1
359 122 1
359 161 1
359 227 6
359 249 4
359 259 2
359 291 2
359 412 1
359 415 1
359 529 1
359 574 1
359 651 1
359 708 1
359 723 1
359 978 1
359 1063 2
359 1079 1
360 119 1
360 187 1
360 199 4
360 315 1
360 378 1
360 413 2
360 415 5
360 439 3
360 524 1
360 546 1
360 548 1
360 661 1
360 800 2
360 854 2
360 957 1
361 28 6
361 52 1
361 74 1
361 83 1
361 107 1
361 167 1
361 192 1
361 240 1
361 250 1
361 264 1
361 301 1
361 366 2
361 632 1
361 633 3
361 662 1
361 798 1
361 803 2
361 820 1
361 830 1
361 967 1
362 35 4
362 70 2
362 75 1
362 211 1
362 212 1
362 238 1
362 273 1
362 277 1
362 378 1
362 432 1
362 442 5
362 478 1
362 803 1
362 1008 1
362 1067 1
363 21 2
363 27 2
363 71 2
363 77 1
363 132 1
363 151 1
363 178 1
363 179 4
363 241 2
363 242 1
363 301 3
363 422 1
363 425 1
363 583 1
363 630 1
363 749 5
363 1026 1
363 1060 1
363 1080 1
363 1081 1
364 15 1
364 32 1
364 56 1
364 74 1
364 75 1
364 169 1
364 173 1
364 183 1
364 193 1
364 215 1
364 243 1
364 244 1
364 264 3
364 277 1
364 278 1
364 375 1
364 419 2
364 480 1
364 481 2
364 510 1
364 511 2
364 531 1
364 557 1
364 594 1
364 596 1
364 889 1
365 13 1
365 35 1
365 82 2
365 95 1
365 99 1
365 185 1
365 196 1
365 259 2
365 306 1
365 331 1
365 365 1
365 370 5
365 472 3
365 478 1
365 484 1
365 514 1
365 557 1
365 616 1
365 711 3
365 759 1
365 788 1
365 809 1
365 960 1
365 1010 2
366 67 1
366 73 1
366 187 3
366 191 6
366 194 2
366 196 1
366 198 3
366 215 1
366 375 1
366 412 1
366 442 2
366 462 2
366 475 1
366 478 1
366 486 1
366 574 1
366 814 1
366 891 1
366 944 1
366 947 4
367 170 1
367 191 1
367 198 2
367 224 2
367 244 1
367 301 1
367 412 1
367 447 1
367 462 1
367 471 1
367 472 1
367 475 4
367 611 1
367 632 1
367 642 2
367 837 1
367 876 1
368 28 3
368 32 1
368 74 1
368 151 1
368 183 2
368 213 1
368 234 1
368 266 2
368 278 1
368 379 1
368 633 3
368 662 3
368 700 1
368 701 1
368 747 1
368 798 1
368 886 2
368 1038 1
369 12 1
369 21 1
369 31 1
369 44 1
369 75 4
369 139 4
369 157 1
369 161 3
369 167 1
369 274 2
369 318 1
369 385 1
369 415 1
369 471 3
369 658 2
369 985 1
370 15 1
370 114 1
370 158 1
370 168 1
370 212 1
370 244 2
370 337 1
370 347 1
370 363 1
370 425 4
370 442 1
370 464 1
370 465 1
370 505 1
370 619 1
370 651 1
370 710 1
370 724 1
370 959 2
370 1075 1
370 1082 1
371 59 3
371 64 1
371 77 1
371 183 1
371 186 1
371 215 2
371 259 4
371 280 1
371 283 2
371 286 2
371 314 1
371 343 1
371 348 1
371 357 4
371 395 1
371 404 1
371 620 1
371 652 1
371 759 1
371 763 2
371 941 1
372 10 2
372 21 1
372 70 1
372 102 5
372 264 2
372 358 5
372 484 1
372 608 1
372 662 1
372 707 1
372 732 1
372 795 1
372 960 2
373 40 1
373 66 1
373 130 2
373 238 1
373 286 1
373 372 4
373 499 1
373 503 1
373 584 1
373 613 1
373 627 5
373 1083 3
374 20 1
374 51 1
374 64 1
374 65 1
374 168 1
374 183 1
374 191 3
374 203 1
374 226 1
374 229 1
374 231 1
374 252 1
374 273 1
374 298 1
374 307 2
374 342 1
374 372 5
374 375 2
374 378 5
374 437 2
374 511 1
374 528 4
374 686 1
374 1084 2
375 21 1
375 64 1
375 75 2
375 80 3
375 81 1
375 103 1
375 176 1
375 186 1
375 192 2
375 275 1
375 280 3
375 314 1
375 318 2
375 417 1
375 852 1
375 905 1
375 918 1
375 1085 1
376 1 1
376 76 1
376 91 1
376 123 5
376 286 1
376 303 1
376 336 1
376 383 1
376 514 1
376 812 1
376 907 1
376 940 2
376 1000 1
376 1086 1
377 10 1
377 70 1
377 94 1
377 231 1
377 232 1
377 254 3
377 277 1
377 289 1
377 310 1
377 356 3
377 358 5
377 405 1
377 415 2
377 1050 1
377 1087 1
378 10 3
378 21 3
378 25 6
378 39 3
378 64 1
378 139 1
378 153 1
378 192 1
378 233 1
378 266 2
378 310 1
378 314 1
378 460 1
378 505 3
378 528 2
378 534 1
378 672 1
378 791 1
378 928 1
378 991 3
378 1088 3
378 1089 1
378 1090 1
379 15 2
379 80 1
379 138 1
379 185 1
379 285 2
379 298 1
379 313 6
379 564 1
379 565 1
379 821 5
379 935 1
380 45 1
380 130 1
380 132 1
380 133 1
380 137 1
380 158 1
380 164 1
380 168 3
380 175 1
380 186 1
380 189 1
380 234 1
380 240 1
380 326 1
380 382 1
380 458 6
380 489 1
380 574 1
380 628 1
380 698 1
380 729 3
380 946 1
380 1066 1
380 1071 1
380 1091 1
380 1092 1
381 45 1
381 75 1
381 87 1
381 95 4
381 157 2
381 164 1
381 167 6
381 183 1
381 190 1
381 206 1
381 236 1
381 269 5
381 284 1
381 285 1
381 303 1
381 374 1
381 376 1
381 661 1
381 1093 2
382 28 4
382 80 2
382 199 2
382 259 1
382 264 1
382 310 1
382 412 1
382 467 1
382 510 1
382 554 1
382 615 1
382 752 1
382 886 5
382 1094 1
383 65 1
383 127 1
383 141 2
383 192 1
383 229 1
383 241 2
383 343 6
383 364 3
383 578 4
383 713 1
384 1 1
384 10 1
384 32 2
384 62 1
384 65 1
384 80 2
384 110 1
384 116 2
384 123 1
384 135 1
384 153 1
384 213 1
384 236 2
384 238 1
384 261 2
384 315 3
384 336 1
384 404 1
384 407 1
384 425 1
384 588 1
384 814 1
385 141 1
385 170 1
385 178 1
385 191 1
385 252 1
385 285 1
385 301 2
385 335 1
385 397 1
385 415 1
385 454 1
385 518 1
385 527 3
385 578 1
385 614 1
385 659 2
385 733 3
385 824 2
385 839 1
385 916 2
385 1041 2
386 10 1
386 21 1
386 70 2
386 75 1
386 102 1
386 143 1
386 153 2
386 167 1
386 177 1
386 183 1
386 187 2
386 218 1
386 222 1
386 302 1
386 306 1
386 312 1
386 371 1
386 489 4
386 552 5
386 663 1
387 10 1
387 21 4
387 64 1
387 75 2
387 86 2
387 142 1
387 151 1
387 153 8
387 170 7
387 187 1
387 205 4
387 259 1
387 273 2
387 274 1
387 301 1
387 311 1
387 314 2
387 336 2
387 414 1
387 454 1
387 484 5
387 505 1
387 518 1
387 640 1
387 651 1
387 881 1
387 927 1
387 946 1
387 947 2
388 10 1
388 29 1
388 32 1
388 45 1
388 53 1
388 60 1
388 70 1
388 76 1
388 80 3
388 109 1
388 169 1
388 172 3
388 178 1
388 192 3
388 216 1
388 302 1
388 311 2
388 331 1
388 336 1
388 364 1
388 421 2
388 499 3
388 573 1
388 616 1
388 873 1
388 903 2
389 47 2
389 158 1
389 161 1
389 178 1
389 193 1
389 223 5
389 226 1
389 228 1
389 257 1
389 361 1
389 456 1
389 478 2
389 484 4
389 574 1
389 614 1
389 809 4
389 853 5
389 1029 4
389 1095 2
390 21 1
390 42 1
390 44 1
390 55 1
390 71 1
390 74 1
390 77 1
390 149 1
390 161 1
390 215 2
390 232 1
390 259 8
390 290 1
390 301 4
390 302 1
390 361 1
390 417 1
390 419 1
390 423 1
390 477 1
390 484 1
390 616 2
390 692 2
390 718 1
390 744 1
390 747 3
390 809 1
390 977 1
390 997 1
390 1043 1
391 11 1
391 15 4
391 19 2
391 52 3
391 53 1
391 192 1
391 278 1
391 296 1
391 389 1
391 530 1
391 577 1
391 711 3
391 738 2
391 822 1
391 1096 1
392 10 1
392 50 1
392 70 1
392 75 1
392 157 1
392 161 4
392 167 5
392 186 1
392 206 1
392 217 1
392 218 2
392 267 1
392 299 1
392 318 2
392 443 1
392 444 1
392 506 1
393 21 1
393 41 1
393 95 1
393 96 1
393 187 5
393 193 2
393 196 2
393 198 1
393 205 1
393 259 1
393 302 2
393 412 1
393 443 1
393 473 1
393 552 5
393 621 1
393 640 1
393 809 2
393 1085 1
393 1097 1
394 75 1
394 80 1
394 103 1
394 215 1
394 294 1
394 302 1
394 417 1
394 484 10
394 509 1
394 556 4
394 566 1
394 699 1
394 809 1
394 820 1
394 880 1
394 946 1
394 1034 1
395 5 2
395 41 2
395 127 1
395 151 1
395 268 3
395 275 1
395 278 1
395 299 2
395 310 1
395 332 1
395 464 1
395 515 1
395 523 1
395 559 1
395 589 1
395 614 1
395 694 1
395 699 1
395 713 1
395 753 1
395 759 1
395 848 2
395 881 1
395 1098 1
396 15 1
396 39 1
396 77 1
396 78 1
396 139 1
396 151 3
396 158 1
396 192 2
396 199 1
396 238 1
396 266 1
396 303 2
396 311 1
396 313 2
396 340 1
396 342 1
396 371 1
396 374 3
396 415 1
396 564 4
396 565 3
396 584 3
396 615 1
396 800 1
396 910 1
396 916 1
396 983 1
397 27 1
397 45 1
397 80 5
397 151 1
397 175 2
397 238 2
397 323 2
397 336 1
397 363 2
397 396 3
397 422 4
397 499 1
397 510 1
397 515 1
397 517 1
397 526 1
397 528 1
397 561 1
397 582 1
397 612 3
397 729 1
397 758 1
397 821 1
397 859 1
397 876 1
397 901 2
397 902 1
397 917 1
397 978 1
398 59 1
398 80 6
398 82 1
398 116 1
398 138 1
398 141 1
398 179 1
398 185 1
398 192 1
398 199 2
398 229 1
398 238 1
398 269 1
398 274 5
398 285 2
398 334 7
398 421 2
398 468 1
398 584 3
398 615 1
398 730 2
398 733 1
398 797 1
398 876 1
398 1073 1
398 1099 1
399 5 1
399 114 1
399 138 1
399 151 1
399 232 1
399 241 1
399 300 8
399 309 1
399 343 1
399 443 1
399 481 1
399 515 5
399 699 1
399 807 1
399 821 1
399 865 8
399 876 1
399 1100 1
400 46 2
400 64 1
400 73 1
400 75 2
400 83 1
400 86 1
400 94 1
400 110 1
400 139 3
400 143 3
400 146 1
400 147 2
400 192 1
400 219 1
400 229 2
400 238 3
400 256 1
400 300 1
400 307 1
400 382 1
400 397 1
400 442 1
400 576 1
400 583 1
400 674 1
400 684 1
400 685 2
400 711 1
400 905 1
400 913 1
400 945 6
400 955 1
400 1016 1
400 1067 1
401 64 1
401 156 1
401 167 4
401 191 1
401 279 1
401 285 3
401 289 1
401 298 1
401 301 1
401 332 1
401 365 4
401 377 3
401 383 1
401 662 1
401 669 1
401 773 2
401 784 1
401 1101 1
401 1102 1
402 76 2
402 132 6
402 142 3
402 151 1
402 178 1
402 266 1
402 312 1
402 320 1
402 411 2
402 561 1
402 562 1
402 664 1
402 711 3
402 772 1
402 873 1
402 965 1
402 1103 1
403 58 1
403 113 1
403 239 1
403 285 1
403 286 5
403 331 1
403 376 1
403 455 1
404 67 2
404 81 3
404 112 1
404 153 1
404 183 1
404 192 1
404 206 3
404 257 1
404 295 1
404 299 2
404 378 1
404 396 1
404 498 8
404 499 1
404 630 1
404 664 1
404 695 2
404 737 1
404 896 2
404 913 1
404 964 1
405 14 1
405 35 3
405 66 1
405 81 1
405 92 1
405 153 1
405 371 3
405 379 1
405 446 1
405 460 1
405 629 1
405 650 1
405 682 3
405 792 1
405 909 1
405 955 2
405 975 1
405 1026 1
405 1080 1
405 1081 1
405 1084 5
405 1104 1
405 1105 1
405 1106 2
405 1107 2
406 1 1
406 45 3
406 80 16
406 104 1
406 109 1
406 119 1
406 157 1
406 160 1
406 161 2
406 169 3
406 171 1
406 184 1
406 192 3
406 193 1
406 244 1
406 254 2
406 256 1
406 281 1
406 388 1
406 652 1
406 673 1
406 784 1
406 821 1
407 1 2
407 10 1
407 35 1
407 44 1
407 157 1
407 158 3
407 167 1
407 170 1
407 203 1
407 229 1
407 302 1
407 303 1
407 396 2
407 458 2
407 488 1
407 558 1
407 660 1
407 675 1
407 775 8
407 989 1
408 10 4
408 13 2
408 27 1
408 48 1
408 50 3
408 65 2
408 70 2
408 100 1
408 102 3
408 103 1
408 160 2
408 161 1
408 177 2
408 222 3
408 286 1
408 316 1
408 373 1
408 375 1
408 394 2
408 442 1
408 461 1
408 504 2
408 558 3
408 595 1
408 673 2
408 989 1
408 1029 1
408 1030 1
408 1108 1
409 1 2
409 3 3
409 10 1
409 25 4
409 40 3
409 50 1
409 66 1
409 157 1
409 161 2
409 172 1
409 187 1
409 232 1
409 286 2
409 383 1
409 506 1
409 577 1
409 595 1
409 604 1
409 718 1
409 892 2
410 15 1
410 59 5
410 76 1
410 78 1
410 95 1
410 132 2
410 163 1
410 199 1
410 238 1
410 250 1
410 259 1
410 264 1
410 296 2
410 336 1
410 402 2
410 505 1
410 508 1
410 510 1
410 527 1
410 593 1
410 633 2
410 662 1
410 846 1
410 886 1
410 1065 1
410 1109 1
411 109 1
411 142 1
411 192 1
411 251 1
411 285 2
411 303 1
411 313 1
411 320 1
411 349 1
411 515 2
411 527 2
411 578 1
411 675 1
411 685 4
411 746 1
411 805 1
411 1110 1
412 10 4
412 20 1
412 21 1
412 43 1
412 95 1
412 206 3
412 218 4
412 301 1
412 374 1
412 378 7
412 381 2
412 408 1
412 415 1
412 462 1
412 500 1
412 568 1
412 934 1
413 60 1
413 76 1
413 80 1
413 139 1
413 144 1
413 169 1
413 185 1
413 215 2
413 259 1
413 263 1
413 338 1
413 366 1
413 380 1
413 383 3
413 386 1
413 436 4
413 471 7
413 512 1
413 648 1
413 734 1
413 797 2
413 917 1
413 947 1
413 1040 1
413 1091 1
414 39 1
414 80 4
414 82 2
414 109 1
414 141 1
414 190 1
414 259 1
414 277 2
414 360 1
414 475 1
414 547 1
414 710 1
414 843 1
414 1096 1
415 1 1
415 42 2
415 50 1
415 71 6
415 75 1
415 92 1
415 101 1
415 160 1
415 186 1
415 187 3
415 218 1
415 220 3
415 234 1
415 277 1
415 291 11
415 318 2
415 334 1
415 418 1
415 465 1
415 478 2
415 567 1
415 587 1
415 689 1
415 697 2
415 721 1
415 905 2
415 962 2
416 75 2
416 192 3
416 259 3
416 339 1
416 388 2
416 445 2
416 460 2
416 489 4
416 560 1
416 590 1
416 640 1
416 642 1
416 648 1
416 858 2
416 905 1
416 939 1
416 970 1
417 21 1
417 51 1
417 109 1
417 113 1
417 143 1
417 148 1
417 161 1
417 163 1
417 167 1
417 171 1
417 218 2
417 281 1
417 306 1
417 418 1
417 660 1
417 700 1
417 814 1
418 5 2
418 110 1
418 218 1
418 311 4
418 364 1
418 365 1
418 389 9
418 460 1
418 475 2
418 506 2
418 527 1
418 556 1
418 630 1
418 803 1
418 1000 1
418 1084 2
418 1111 2
418 1112 1
418 1113 1
418 1114 1
419 5 1
419 91 1
419 100 1
419 129 1
419 145 1
419 150 1
419 229 1
419 235 1
419 279 1
419 319 1
419 359 1
419 382 1
419 435 1
419 553 1
419 556 1
419 559 1
419 594 6
419 705 1
419 718 1
419 1002 2
419 1044 1
419 1055 3
419 1071 1
419 1115 1
420 15 3
420 51 1
420 65 2
420 99 2
420 101 1
420 143 1
420 161 2
420 195 5
420 196 4
420 218 1
420 227 1
420 274 3
420 291 2
420 388 1
420 478 1
420 484 1
420 534 1
420 671 1
420 1029 1
421 11 2
421 15 6
421 38 1
421 39 2
421 80 7
421 83 1
421 88 1
421 186 1
421 238 1
421 245 1
421 256 1
421 278 1
421 279 1
421 285 4
421 295 1
421 302 1
421 303 1
421 306 1
421 460 1
421 673 1
421 846 2
421 940 1
421 988 4
421 1098 1
421 1116 1
422 15 2
422 65 1
422 76 1
422 77 1
422 105 2
422 161 1
422 187 1
422 216 1
422 252 1
422 257 1
422 266 2
422 267 1
422 303 3
422 318 1
422 332 2
422 515 1
422 527 1
422 710 1
422 797 5
422 814 1
422 836 1
422 893 1
422 908 1
422 1006 1
422 1010 1
422 1117 1
422 1118 3
423 21 2
423 62 2
423 65 2
423 77 1
423 95 1
423 186 1
423 191 1
423 283 5
423 286 3
423 325 1
423 343 13
423 395 2
423 620 3
423 739 2
423 784 1
423 952 2
424 41 1
424 74 1
424 82 2
424 126 1
424 169 1
424 238 1
424 264 2
424 273 1
424 277 2
424 281 1
424 305 1
424 378 4
424 419 2
424 504 1
424 695 1
424 701 1
424 896 1
424 958 1
424 1102 1
425 1 1
425 80 3
425 109 1
425 163 1
425 175 2
425 278 1
425 303 2
425 366 1
425 401 1
425 615 1
425 1001 1
426 46 6
426 50 5
426 70 1
426 80 1
426 92 1
426 112 1
426 161 1
426 193 2
426 208 1
426 214 1
426 218 1
426 273 1
426 291 3
426 337 1
426 389 1
426 460 1
426 484 3
426 606 1
426 617 1
426 789 1
426 953 1
426 1007 1
426 1011 2
426 1036 1
426 1072 1
426 1119 1
426 1120 1
426 1121 1
427 13 2
427 32 1
427 67 1
427 167 1
427 199 1
427 206 6
427 212 1
427 215 1
427 259 8
427 300 2
427 314 1
427 487 1
427 678 7
427 822 1
427 905 1
427 967 1
428 13 3
428 117 1
428 153 3
428 180 1
428 186 1
428 278 1
428 331 1
428 340 1
428 460 4
428 512 2
428 806 2
428 1088 1
429 5 1
429 15 2
429 31 1
429 65 1
429 77 1
429 80 8
429 114 1
429 117 5
429 123 5
429 182 1
429 241 3
429 256 3
429 285 1
429 332 1
429 343 2
429 560 1
429 617 1
429 623 2
429 649 1
429 821 11
429 865 1
429 1122 1
430 3 5
430 13 1
430 21 1
430 70 4
430 81 1
430 86 1
430 101 2
430 175 1
430 177 1
430 186 2
430 218 3
430 222 2
430 244 1
430 256 1
430 264 1
430 267 1
430 291 4
430 442 2
430 443 8
430 506 1
430 546 1
430 707 1
430 960 2
430 969 1
430 1030 1
431 1 1
431 3 1
431 7 2
431 10 4
431 21 4
431 22 2
431 35 1
431 86 1
431 90 2
431 122 9
431 153 2
431 157 1
431 183 1
431 254 1
431 257 1
431 260 1
431 303 1
431 306 1
431 335 1
431 342 1
431 386 1
431 595 1
431 644 1
431 673 2
431 685 2
431 705 1
431 833 1
431 836 1
432 13 1
432 21 1
432 47 1
432 50 1
432 73 1
432 75 1
432 81 1
432 95 1
432 99 1
432 102 2
432 153 1
432 170 1
432 215 3
432 399 1
432 419 8
432 474 1
432 512 3
432 545 1
432 647 1
432 1123 2
433 7 1
433 10 1
433 81 1
433 238 1
433 279 1
433 303 1
433 311 1
433 336 1
433 378 2
433 413 1
433 471 1
433 546 1
433 722 2
433 762 1
433 793 1
433 856 1
433 889 1
433 1024 2
433 1052 1
433 1124 1
434 15 3
434 28 1
434 41 1
434 80 5
434 105 1
434 187 3
434 226 2
434 252 1
434 256 3
434 291 1
434 392 2
434 399 1
434 420 1
434 422 2
434 461 1
434 567 1
434 576 2
434 583 1
434 597 1
435 47 1
435 62 1
435 183 1
435 228 1
435 238 1
435 318 2
435 506 1
435 692 1
435 730 1
435 846 1
435 918 1
435 960 2
436 10 1
436 49 1
436 50 1
436 81 2
436 84 1
436 87 1
436 91 4
436 153 2
436 257 1
436 292 1
436 294 2
436 319 3
436 323 1
436 327 1
436 404 1
436 405 1
436 418 2
436 511 1
436 553 1
436 645 1
436 650 1
436 718 1
436 726 1
436 794 1
436 798 1
436 830 1
436 925 1
436 960 1
436 986 1
436 1041 4
436 1125 1
436 1126 1
437 3 1
437 25 1
437 46 2
437 48 2
437 70 2
437 75 6
437 86 1
437 151 1
437 160 9
437 187 2
437 198 1
437 222 1
437 267 2
437 274 3
437 293 1
437 363 1
437 372 1
437 415 2
437 477 1
437 576 1
437 614 1
437 782 1
437 852 1
438 41 1
438 95 1
438 129 2
438 169 2
438 183 1
438 195 2
438 218 2
438 267 4
438 274 1
438 278 1
438 291 4
438 298 1
438 358 3
438 388 1
438 421 2
438 442 1
438 486 2
438 700 1
438 876 1
438 1127 1
439 35 1
439 80 2
439 85 2
439 226 1
439 281 2
439 298 1
439 441 1
439 466 1
439 481 2
439 496 1
439 515 1
439 524 1
439 562 1
439 749 1
439 866 1
439 871 1
439 901 2
439 917 1
439 1128 1
440 1 4
440 64 1
440 181 1
440 240 1
440 285 1
440 580 1
440 652 4
441 32 1
441 56 1
441 62 1
441 63 1
441 163 1
441 183 2
441 199 1
441 238 1
441 259 1
441 359 1
441 465 1
441 527 1
441 662 2
441 674 1
441 886 2
441 1129 1
441 1130 2
442 26 1
442 28 1
442 64 1
442 75 1
442 150 1
442 153 1
442 264 1
442 285 1
442 398 1
442 556 1
442 583 1
442 676 1
442 693 1
442 806 1
442 853 1
443 21 1
443 25 1
443 229 1
443 285 2
443 286 3
443 456 1
443 584 1
443 629 1
443 653 1
443 660 3
443 664 1
443 697 1
443 730 1
443 806 1
443 807 1
443 871 1
443 919 1
444 5 1
444 10 7
444 70 2
444 81 1
444 85 1
444 134 1
444 153 4
444 175 1
444 249 2
444 254 1
444 257 1
444 279 1
444 297 1
444 372 1
444 418 1
444 468 1
444 511 3
444 570 1
444 597 1
444 660 1
444 686 1
444 794 4
444 910 1
444 927 1
444 951 1
444 1115 1
444 1131 1
444 1132 1
445 21 4
445 52 1
445 64 2
445 123 6
445 169 2
445 178 2
445 191 1
445 229 1
445 254 1
445 256 1
445 285 3
445 302 1
445 311 2
445 313 4
445 404 1
445 414 1
445 518 1
445 565 1
445 568 1
445 586 1
445 695 1
445 787 1
445 806 1
445 837 1
445 999 1
445 1000 1
446 62 2
446 64 1
446 66 1
446 77 1
446 110 1
446 139 14
446 170 1
446 186 1
446 189 1
446 238 2
446 278 1
446 285 2
446 335 1
446 363 1
446 409 1
446 423 1
446 577 1
446 584 1
446 730 1
446 881 1
446 1098 1
447 21 1
447 37 1
447 92 1
447 245 1
447 256 1
447 331 1
447 343 1
447 415 1
447 616 1
447 715 1
447 908 1
447 909 1
447 992 3
447 1133 1
448 153 1
448 160 1
448 179 1
448 192 3
448 215 1
448 234 1
448 278 2
448 286 1
448 326 1
448 376 1
448 380 1
448 397 1
448 405 1
448 779 1
448 787 1
448 866 1
448 998 1
449 175 1
449 206 1
449 305 1
449 425 1
449 1103 1
450 1 1
450 139 3
450 312 2
450 401 4
450 580 2
450 614 1
451 32 1
451 64 1
451 267 1
451 336 1
451 339 2
451 415 4
451 422 1
451 442 2
451 447 1
451 484 1
451 489 1
451 527 3
451 633 1
451 662 1
451 687 1
451 743 1
451 778 2
451 1134 1
451 1135 1
452 5 1
452 32 1
452 71 1
452 82 3
452 91 1
452 237 1
452 259 1
452 340 1
452 349 1
452 530 3
452 586 1
452 661 2
452 810 1
452 995 1
452 1026 1
452 1080 1
452 1081 1
453 11 3
453 21 6
453 63 1
453 76 1
453 117 2
453 153 4
453 186 2
453 266 2
453 277 3
453 279 1
453 359 1
453 378 4
453 419 8
453 458 1
453 504 1
453 589 1
453 704 5
453 741 2
453 952 2
454 80 2
454 256 1
454 313 5
454 382 1
454 415 1
454 536 1
454 582 2
454 871 4
455 64 1
455 77 1
455 113 1
455 195 5
455 290 2
455 590 1
455 656 1
455 876 1
456 161 1
456 211 1
456 215 6
456 301 1
456 327 1
456 412 1
456 633 1
456 852 1
456 1029 4
456 1103 1
457 1 3
457 45 2
457 47 2
457 70 4
457 104 1
457 153 1
457 187 1
457 193 2
457 302 1
457 314 1
457 420 1
458 32 3
458 47 2
458 50 2
458 62 2
458 67 1
458 193 1
458 227 2
458 228 1
458 232 1
458 339 3
458 340 1
458 407 3
458 447 2
458 471 2
458 478 1
458 607 1
458 609 1
458 660 1
458 843 1
459 32 5
459 44 4
459 183 1
459 226 1
459 430 2
459 489 2
459 620 3
459 635 1
459 1136 1
460 29 3
460 40 1
460 41 1
460 132 1
460 154 2
460 179 1
460 241 7
460 332 1
460 372 1
460 377 1
460 636 1
460 772 1
460 848 1
460 1061 1
461 32 3
461 45 1
461 75 1
461 112 1
461 114 1
461 153 1
461 192 1
461 232 2
461 278 1
461 302 1
461 443 1
461 606 1
461 752 1
461 800 1
461 876 1
461 1026 1
462 10 1
462 132 1
462 156 1
462 241 2
462 300 4
462 346 2
462 377 1
462 378 1
462 595 1
462 874 2
462 1023 1
462 1137 1
463 15 1
463 59 2
463 60 2
463 186 3
463 273 1
463 285 1
463 312 1
463 318 2
463 442 1
463 515 1
463 578 1
463 653 1
463 744 1
463 888 1
464 102 1
464 151 5
464 180 1
464 206 2
464 285 2
464 561 4
464 621 1
464 701 2
464 754 1
464 896 1
464 916 1
464 1005 2
465 21 2
465 151 2
465 179 1
465 266 1
465 300 2
465 307 1
465 358 4
465 378 4
465 437 1
465 589 3
465 874 1
466 13 2
466 48 1
466 74 1
466 83 1
466 85 1
466 90 1
466 151 1
466 378 1
466 384 2
466 487 1
466 527 2
466 661 1
466 916 2
466 924 1
467 170 1
467 183 1
467 216 2
467 235 1
467 278 1
467 283 1
467 705 1
468 21 2
468 56 1
468 87 1
468 99 4
468 110 1
468 122 1
468 170 1
468 183 1
468 192 3
468 196 1
468 243 1
468 266 1
468 406 2
468 442 4
468 621 2
468 695 1
468 876 1
468 1122 1
469 5 2
469 123 7
469 169 1
469 238 1
469 558 1
469 566 1
469 621 2
469 1025 1
470 127 1
470 167 1
470 201 1
470 226 1
470 266 1
470 298 1
470 301 1
470 378 3
470 389 3
470 1025 2
471 3 4
471 21 2
471 31 1
471 75 1
471 103 1
471 177 1
471 218 3
471 222 1
471 274 1
471 277 2
471 291 4
471 388 1
471 676 1
471 678 1
471 960 1
472 15 1
472 20 1
472 151 1
472 175 1
472 259 1
472 301 2
472 324 1
472 411 2
472 619 1
472 798 4
472 876 1
472 1038 1
472 1137 1
473 9 1
473 42 1
473 90 1
473 169 1
473 214 1
473 218 1
473 243 1
473 266 1
473 669 1
473 962 1
473 1084 1
473 1111 1
474 14 1
474 80 1
474 109 1
474 131 1
474 162 1
474 168 1
474 229 1
474 278 2
474 302 1
474 326 1
474 329 1
474 363 1
474 383 1
474 466 4
474 514 1
474 763 1
474 866 3
475 5 1
475 13 1
475 21 1
475 29 2
475 45 2
475 53 1
475 80 1
475 202 1
475 229 1
475 237 2
475 238 1
475 241 1
475 254 1
475 274 1
475 302 2
475 343 1
475 388 1
475 443 1
475 537 2
475 574 1
475 623 1
475 821 8
475 865 5
475 992 1
475 1063 1
475 1065 1
476 3 4
476 15 5
476 62 1
476 64 1
476 75 1
476 84 1
476 91 1
476 191 2
476 254 1
476 305 3
476 365 1
476 551 1
476 589 1
476 773 1
476 871 1
477 1 5
477 15 2
477 39 1
477 45 1
477 67 1
477 88 1
477 90 1
477 172 1
477 183 1
477 306 1
477 343 2
477 364 1
477 388 1
477 483 2
477 546 2
477 558 1
477 896 1
477 957 1
477 1138 1
478 10 1
478 20 2
478 21 1
478 35 1
478 91 1
478 153 1
478 307 1
478 309 1
478 370 1
478 378 2
478 413 4
478 458 1
478 462 1
478 682 1
478 856 1
478 929 2
479 15 2
479 32 1
479 64 1
479 65 1
479 83 1
479 91 1
479 162 1
479 342 1
479 401 1
479 481 1
479 594 1
479 602 1
479 711 1
479 730 1
479 758 1
479 843 1
479 987 1
479 1000 1
479 1139 1
480 28 2
480 32 1
480 139 2
480 170 1
480 199 2
480 264 1
480 335 1
480 409 1
480 487 1
480 661 4
480 754 3
480 886 4
480 1005 1
481 21 2
481 77 2
481 192 1
481 236 1
481 259 2
481 264 1
481 300 1
481 379 1
481 589 1
481 661 2
481 705 1
481 822 1
481 956 1
481 1026 1
481 1080 1
481 1081 1
481 1088 2
481 1093 1
482 32 1
482 74 1
482 139 1
482 264 1
482 324 1
482 357 1
482 359 1
482 419 1
482 480 1
482 574 1
482 631 1
482 713 1
482 759 1
482 781 1
482 860 1
483 139 2
483 167 1
483 298 1
483 313 4
483 374 1
483 384 2
483 500 1
483 530 1
483 557 1
483 565 2
483 614 1
484 1 1
484 65 2
484 74 1
484 76 2
484 82 4
484 169 1
484 178 1
484 186 1
484 192 6
484 217 3
484 230 1
484 494 2
484 863 1
484 884 1
484 1110 1
485 35 5
485 80 1
485 110 1
485 183 2
485 215 1
485 216 1
485 283 1
485 289 1
485 404 1
485 421 3
485 581 3
485 734 1
485 737 1
485 812 1
485 954 1
485 1140 4
486 127 1
486 175 1
486 286 1
486 306 1
486 311 1
486 321 1
486 343 2
486 380 1
486 397 1
486 427 2
486 458 2
486 554 1
486 581 2
486 594 1
486 721 1
486 729 2
486 826 1
486 843 2
486 957 2
486 982 1
486 1014 1
486 1141 1
486 1142 1
487 37 1
487 77 1
487 139 4
487 142 1
487 233 11
487 256 1
487 354 1
487 409 1
487 444 1
487 535 2
487 538 3
487 753 1
487 1133 1
488 15 1
488 60 1
488 80 3
488 112 1
488 139 1
488 151 2
488 161 1
488 175 1
488 192 1
488 238 3
488 267 1
488 306 2
488 312 1
488 334 7
488 371 1
488 385 1
488 421 2
488 426 1
488 443 1
488 560 1
488 584 1
488 808 1
488 1143 1
489 29 1
489 66 3
489 114 1
489 154 1
489 178 1
489 229 1
489 237 1
489 241 3
489 298 1
489 377 1
489 393 1
489 425 1
489 595 1
489 602 1
489 636 2
489 695 1
490 21 2
490 32 2
490 65 2
490 69 1
490 196 1
490 198 1
490 243 1
490 310 2
490 359 1
490 394 1
490 443 3
490 447 1
490 484 1
490 506 3
490 778 5
490 876 1
490 1088 1
490 1134 1
491 62 1
491 156 1
491 175 6
491 217 1
491 259 3
491 261 2
491 489 2
491 515 2
491 609 1
491 652 1
491 744 1
491 761 1
491 876 1
491 1144 2
491 1145 1
492 11 1
492 65 1
492 179 1
492 185 1
492 186 3
492 199 4
492 238 2
492 247 1
492 274 1
492 285 2
492 312 2
492 334 8
492 393 1
492 424 1
492 425 1
492 471 1
492 515 1
492 728 1
492 733 1
492 821 2
492 865 1
493 32 1
493 76 1
493 80 1
493 151 2
493 332 2
493 380 2
493 422 1
493 464 1
493 700 2
493 740 1
493 821 2
493 865 3
493 1080 1
493 1146 2
494 59 1
494 77 1
494 105 1
494 107 1
494 186 1
494 193 1
494 238 1
494 241 1
494 319 1
494 339 1
494 356 1
494 395 1
494 515 1
494 609 2
494 620 1
494 624 1
494 652 2
494 687 2
494 689 3
494 775 7
495 38 1
495 45 1
495 65 1
495 66 2
495 80 1
495 192 1
495 201 1
495 226 1
495 278 1
495 303 2
495 332 1
495 342 1
495 371 1
495 384 1
495 684 1
495 710 1
495 861 1
495 918 1
495 979 2
496 10 1
496 39 1
496 56 1
496 70 1
496 76 1
496 158 1
496 159 1
496 166 1
496 175 4
496 178 1
496 193 2
496 206 1
496 244 1
496 277 2
496 415 2
496 478 2
496 505 1
496 584 1
496 754 3
497 78 1
497 143 1
497 186 1
497 289 1
497 366 1
497 504 1
497 507 1
497 591 1
497 612 1
497 738 1
497 1147 3
498 1 1
498 45 1
498 70 8
498 75 1
498 76 1
498 77 1
498 169 1
498 177 1
498 192 1
498 218 1
498 252 1
498 281 2
498 334 1
498 358 5
498 382 1
498 489 1
498 518 1
498 911 1
498 1063 1
498 1109 1
499 35 4
499 80 1
499 110 1
499 179 1
499 192 1
499 238 3
499 283 2
499 304 1
499 421 1
499 514 1
499 525 2
499 581 2
499 584 1
499 737 3
499 784 1
499 1140 2
499 1148 1
500 20 1
500 64 1
500 142 3
500 175 1
500 186 1
500 191 2
500 229 1
500 266 1
500 285 1
500 301 1
500 378 7
500 466 1
500 528 2
501 192 2
501 280 3
501 303 1
501 314 2
501 364 2
501 372 1
501 374 2
501 515 1
501 715 2
501 804 2
502 77 2
502 139 1
502 158 3
502 170 1
502 185 2
502 216 1
502 303 1
502 378 1
502 401 2
502 471 1
502 481 1
502 515 1
502 580 1
502 590 1
502 711 2
502 1042 1
503 64 1
503 80 4
503 109 1
503 116 1
503 143 1
503 146 1
503 175 1
503 237 1
503 238 1
503 298 1
503 312 1
503 336 2
503 392 1
503 397 1
503 475 1
503 517 1
503 527 3
503 636 1
503 685 4
503 797 1
503 917 1
504 8 1
504 139 2
504 143 1
504 214 1
504 216 1
504 238 1
504 286 1
504 404 1
504 539 1
504 595 1
504 734 1
504 735 1
504 812 1
504 954 1
504 973 1
504 985 1
505 32 1
505 44 1
505 75 5
505 96 1
505 110 1
505 139 1
505 203 1
505 266 1
505 283 3
505 289 3
505 300 1
505 303 1
505 640 1
505 973 1
506 10 1
506 70 1
506 80 1
506 123 1
506 153 1
506 215 1
506 274 1
506 286 1
506 312 1
506 323 1
506 359 1
506 480 2
506 481 2
506 952 1
507 77 2
507 167 1
507 301 2
507 364 1
507 393 1
507 423 1
507 505 1
507 944 2
508 80 1
508 123 3
508 229 1
508 271 3
508 619 1
508 695 1
508 821 6
509 61 1
509 65 1
509 80 3
509 109 1
509 163 1
509 187 1
509 192 2
509 199 1
509 231 1
509 243 1
509 266 1
509 285 3
509 306 2
509 336 3
509 376 1
509 397 2
509 475 1
509 512 1
509 589 1
509 634 1
509 755 1
509 944 1
509 1114 1
510 77 1
510 132 5
510 169 1
510 278 1
510 342 1
510 346 1
510 407 6
510 422 1
510 445 1
510 458 2
510 527 2
510 590 1
510 663 3
510 722 1
510 841 1
511 15 1
511 27 3
511 28 1
511 65 1
511 83 2
511 117 2
511 120 1
511 132 1
511 139 1
511 144 5
511 171 1
511 175 1
511 183 1
511 223 3
511 224 1
511 286 1
511 303 1
511 324 1
511 346 2
511 363 4
511 422 1
511 488 1
511 495 1
511 729 1
511 800 1
511 860 1
511 908 1
511 909 1
511 991 1
511 1066 1
511 1108 1
512 62 2
512 76 1
512 109 1
512 139 1
512 192 1
512 229 1
512 239 1
512 283 2
512 289 1
512 298 1
512 331 1
512 363 1
512 364 1
512 481 2
512 797 1
512 1022 1
513 27 2
513 45 1
513 91 1
513 183 1
513 206 3
513 234 1
513 257 1
513 285 2
513 300 1
513 334 10
513 336 1
513 372 1
513 426 1
513 661 1
513 947 1
514 27 1
514 35 2
514 67 1
514 81 1
514 175 2
514 178 1
514 215 1
514 286 1
514 305 2
514 384 1
514 524 2
514 526 1
514 686 1
514 737 2
514 742 2
515 15 1
515 64 1
515 82 2
515 123 2
515 263 2
515 273 1
515 334 3
515 404 1
515 425 2
515 554 2
515 561 1
515 670 1
515 902 4
515 1149 1
516 1 1
516 14 1
516 25 1
516 65 1
516 71 4
516 76 1
516 125 1
516 139 2
516 159 1
516 180 1
516 245 3
516 283 1
516 286 3
516 332 7
516 381 2
516 384 2
516 412 1
516 620 1
516 640 1
516 800 1
516 890 3
517 1 1
517 5 1
517 64 1
517 76 2
517 82 2
517 132 7
517 151 1
517 167 1
517 179 1
517 182 1
517 234 1
517 238 4
517 241 4
517 278 1
517 298 2
517 343 2
517 516 1
517 636 2
517 673 1
517 967 1
517 1060 1
518 45 2
518 47 1
518 52 2
518 64 1
518 112 1
518 168 1
518 266 1
518 432 1
518 512 1
518 706 3
518 718 1
518 747 1
518 798 1
518 983 1
518 1096 1
518 1139 1
518 1150 1
519 117 1
519 146 2
519 226 1
519 238 1
519 381 1
519 404 1
519 446 1
519 595 1
519 684 1
519 705 2
519 812 1
519 908 1
519 909 1
520 14 1
520 32 3
520 186 1
520 235 1
520 275 1
520 312 2
520 324 1
520 340 1
520 738 2
520 842 2
520 876 1
520 1052 1
520 1080 1
521 15 1
521 45 3
521 80 1
521 117 3
521 186 1
521 238 2
521 257 1
521 289 1
521 300 2
521 397 1
521 409 1
521 422 1
521 514 1
521 694 1
521 821 7
521 877 1
521 881 1
522 45 1
522 64 2
522 104 1
522 127 1
522 141 1
522 167 2
522 175 1
522 306 2
522 321 1
522 366 1
522 393 1
522 418 1
522 491 1
522 552 1
522 634 1
522 635 3
522 636 1
522 658 1
522 785 1
522 851 1
522 903 1
522 917 1
522 980 1
522 1059 2
522 1151 1
523 47 4
523 60 1
523 62 2
523 64 1
523 67 1
523 74 1
523 217 1
523 229 1
523 259 2
523 274 1
523 314 1
523 417 1
523 467 1
523 619 1
523 660 1
523 744 1
523 867 1
523 978 1
524 65 1
524 86 1
524 245 9
524 253 1
524 254 1
524 279 1
524 311 7
524 515 4
524 578 1
524 612 1
524 903 1
524 1026 1
524 1058 5
524 1080 1
524 1081 1
524 1152 1
525 21 2
525 29 3
525 45 1
525 70 3
525 110 1
525 119 1
525 135 1
525 157 3
525 163 1
525 167 1
525 169 1
525 179 1
525 257 1
525 272 1
525 299 4
525 301 1
525 319 1
525 343 1
525 377 1
525 385 1
525 405 1
525 876 1
525 888 2
525 957 1
525 980 1
526 64 1
526 139 1
526 169 1
526 178 1
526 186 1
526 222 1
526 231 4
526 259 4
526 305 1
526 310 3
526 425 1
526 467 1
526 512 1
526 803 1
526 804 2
527 31 1
527 34 1
527 67 2
527 150 1
527 180 1
527 187 1
527 190 1
527 193 2
527 228 1
527 301 2
527 315 2
527 371 1
527 429 2
527 444 1
527 474 2
527 478 1
527 485 1
527 489 2
527 603 1
527 605 1
527 616 2
527 621 1
527 853 1
528 1 1
528 10 5
528 56 1
528 70 1
528 102 1
528 143 1
528 148 6
528 274 1
528 358 2
528 616 1
529 31 1
529 34 1
529 75 1
529 160 1
529 183 1
529 193 1
529 266 1
529 285 2
529 375 1
529 393 1
529 484 1
529 595 4
529 611 1
529 634 1
529 640 1
529 653 3
529 937 2
530 32 1
530 164 1
530 170 2
530 187 1
530 215 2
530 300 3
530 305 3
530 505 3
530 525 1
530 556 2
530 651 2
530 700 1
530 762 1
530 933 2
530 1153 1
531 71 1
531 80 3
531 179 1
531 206 2
531 283 2
531 286 3
531 298 1
531 306 1
531 324 2
531 387 2
531 421 2
531 426 1
531 514 3
531 630 1
531 870 1
531 1016 1
532 14 1
532 139 1
532 179 1
532 183 1
532 185 2
532 216 2
532 277 1
532 300 1
532 306 1
532 307 2
532 371 6
532 661 1
532 808 1
532 1138 1
533 15 5
533 41 1
533 60 1
533 80 4
533 181 1
533 220 1
533 245 2
533 256 1
533 283 1
533 284 2
533 346 2
533 582 2
533 875 1
533 894 4
533 1086 1
533 1154 1
534 41 1
534 70 1
534 185 1
534 215 1
534 259 2
534 275 1
534 278 1
534 302 1
534 331 1
534 332 1
534 342 1
534 375 1
534 410 1
534 591 1
534 619 1
534 699 1
534 710 1
535 1 3
535 3 1
535 39 1
535 41 1
535 44 1
535 45 1
535 70 2
535 167 1
535 269 1
535 335 1
535 381 1
535 388 1
535 443 1
535 605 1
535 652 1
535 975 1
536 35 1
536 140 1
536 215 1
536 267 1
536 280 4
536 331 1
536 370 3
536 371 3
536 375 1
536 592 1
536 635 1
536 703 1
536 705 1
536 711 1
536 995 1
536 1001 1
536 1136 1
537 15 2
537 27 1
537 80 1
537 82 1
537 139 2
537 153 1
537 157 1
537 187 1
537 192 1
537 254 3
537 278 2
537 311 1
537 324 1
537 326 1
537 407 1
537 521 3
537 536 1
537 551 1
537 565 3
537 582 1
537 910 1
538 46 2
538 47 1
538 98 1
538 143 1
538 167 1
538 186 1
538 192 1
538 215 2
538 450 1
538 460 1
538 642 4
538 815 1
538 1155 1
539 1 1
539 77 3
539 124 1
539 128 1
539 167 1
539 236 2
539 256 1
539 269 1
539 285 1
539 286 2
539 298 1
539 305 1
539 308 1
539 313 2
539 372 1
539 374 1
539 381 1
539 393 1
539 404 1
539 415 2
539 500 2
539 649 1
539 660 1
539 800 1
539 940 1
539 1156 2
540 45 1
540 47 3
540 70 1
540 75 1
540 84 1
540 109 2
540 125 1
540 167 2
540 179 1
540 192 1
540 193 2
540 245 1
540 267 1
540 332 1
540 342 1
540 574 1
540 576 1
540 658 4
540 963 1
540 1059 1
540 1157 1
541 3 2
541 71 4
541 77 1
541 167 3
541 197 1
541 235 2
541 254 2
541 259 1
541 303 1
541 306 2
541 344 1
541 838 2
541 980 1
542 20 1
542 21 1
542 64 1
542 100 1
542 102 1
542 114 1
542 159 1
542 160 1
542 186 1
542 217 1
542 235 1
542 264 1
542 296 1
542 378 1
542 404 1
542 419 3
542 442 1
542 621 1
542 689 1
542 701 1
542 730 1
543 80 1
543 92 1
543 100 1
543 139 3
543 158 1
543 178 1
543 183 1
543 234 1
543 283 3
543 363 2
543 404 1
543 463 1
543 519 1
543 535 1
543 539 1
543 584 2
543 1037 1
544 38 1
544 39 1
544 45 4
544 63 1
544 70 6
544 75 4
544 203 1
544 212 5
544 229 1
544 257 2
544 311 1
544 542 1
544 861 3
544 1096 1
545 14 1
545 44 1
545 59 4
545 65 1
545 71 1
545 187 3
545 192 1
545 230 2
545 259 1
545 279 1
545 338 1
545 368 1
545 386 2
545 530 2
545 562 1
545 586 1
545 609 1
545 642 1
545 661 1
545 670 1
546 26 2
546 47 1
546 160 3
546 161 1
546 193 3
546 228 1
546 257 1
546 291 1
546 478 1
546 531 1
546 655 2
546 958 1
546 1029 2
547 3 1
547 45 1
547 80 1
547 256 1
547 271 1
547 283 1
547 311 1
547 313 6
547 374 4
547 376 1
547 404 1
547 405 1
547 415 1
547 564 1
547 860 1
547 935 1
547 1158 1
548 75 1
548 80 6
548 82 1
548 139 1
548 153 1
548 245 1
548 267 1
548 270 5
548 285 1
548 291 1
548 312 1
548 339 1
548 421 2
548 730 1
548 758 3
548 999 1
549 45 1
549 70 1
549 123 6
549 179 2
549 256 1
549 313 2
549 335 1
549 336 1
549 393 1
549 565 5
549 602 1
549 907 1
549 957 1
550 21 1
550 88 1
550 156 1
550 183 2
550 186 1
550 213 7
550 227 2
550 237 1
550 256 2
550 285 1
550 336 2
550 372 1
550 382 1
550 442 1
550 621 1
550 814 1
550 928 2
550 996 1
550 997 1
550 1075 1
551 44 1
551 77 1
551 132 5
551 151 3
551 178 1
551 301 1
551 325 3
551 343 2
551 561 3
551 562 1
551 713 1
551 772 1
551 775 1
551 956 1
552 21 5
552 35 4
552 84 5
552 139 8
552 202 2
552 342 1
552 347 1
552 730 1
552 950 1
553 77 2
553 104 1
553 139 2
553 143 1
553 168 1
553 170 1
553 264 1
553 319 5
553 329 1
553 356 2
553 359 1
553 1039 1
553 1128 1
554 1 1
554 21 1
554 32 2
554 50 1
554 65 2
554 74 1
554 76 1
554 108 1
554 149 1
554 278 1
554 285 1
554 471 1
554 560 1
554 642 1
554 700 2
554 754 1
554 888 4
554 932 1
554 1103 1
554 1157 1
554 1159 1
555 11 7
555 32 4
555 240 1
555 266 2
555 286 2
555 301 1
555 415 4
555 880 1
555 888 1
555 956 2
555 1054 1
555 1135 1
556 21 2
556 92 1
556 123 3
556 254 1
556 285 3
556 304 1
556 306 1
556 335 1
556 336 1
556 415 2
556 907 2
556 971 1
556 975 1
556 1160 1
557 119 1
557 193 1
557 215 1
557 230 4
557 259 1
557 266 1
557 325 1
557 527 1
557 661 5
557 678 2
557 822 1
557 1161 1
557 1162 1
558 21 1
558 46 1
558 149 1
558 167 1
558 175 1
558 301 2
558 302 2
558 356 1
558 417 1
558 442 1
558 566 1
558 568 1
558 705 3
558 718 1
558 799 4
558 820 1
558 876 1
558 1010 1
558 1117 3
559 32 1
559 77 2
559 81 1
559 86 1
559 195 7
559 211 1
559 256 1
559 263 1
559 290 2
559 312 1
559 382 1
559 425 1
559 442 1
559 447 1
559 562 2
559 778 1
559 888 2
559 916 1
559 944 2
560 21 2
560 80 3
560 138 1
560 311 1
560 313 3
560 378 5
560 405 1
560 564 1
560 1000 1
561 238 1
561 285 1
561 335 1
561 342 2
561 372 1
561 373 1
561 399 1
561 413 1
561 508 1
561 584 1
561 754 3
561 762 1
561 775 2
561 856 4
561 1005 1
561 1163 1
562 74 1
562 183 2
562 203 1
562 235 1
562 404 2
562 416 1
562 800 3
562 1001 1
563 58 1
563 179 1
563 214 5
563 229 5
563 279 6
563 286 2
563 303 2
563 306 3
563 375 1
563 940 1
563 1154 1
564 32 2
564 64 1
564 105 1
564 160 5
564 227 1
564 228 1
564 230 1
564 259 1
564 340 1
564 403 1
564 427 1
564 430 4
564 510 1
564 653 1
564 697 1
564 710 2
564 892 1
565 34 1
565 47 1
565 73 1
565 169 1
565 318 1
565 332 1
565 397 1
565 462 1
565 471 6
565 572 1
565 581 1
565 591 1
565 633 1
565 769 1
565 876 1
565 1138 1
565 1164 2
565 1165 1
566 13 1
566 35 7
566 117 2
566 141 1
566 186 1
566 215 1
566 259 10
566 303 1
566 312 1
566 556 2
566 641 1
566 673 2
566 892 1
566 1147 1
567 65 1
567 76 1
567 213 1
567 218 1
567 301 5
567 303 2
567 312 2
567 318 1
567 338 1
567 376 1
567 404 1
567 419 2
567 559 1
567 643 1
568 64 1
568 77 1
568 158 2
568 179 1
568 183 1
568 187 1
568 238 1
568 301 1
568 302 1
568 306 1
568 342 1
568 442 1
568 515 2
568 528 1
568 590 1
568 640 2
568 661 1
568 711 1
568 821 1
568 865 5
568 915 1
568 1088 1
568 1145 1
569 5 3
569 158 1
569 183 1
569 306 1
569 318 1
569 331 1
569 364 1
569 460 1
569 475 2
569 518 1
569 556 1
569 630 1
569 673 1
569 705 1
569 803 1
569 992 1
569 1111 4
569 1112 1
569 1113 1
569 1166 1
570 39 1
570 44 2
570 65 1
570 81 1
570 139 2
570 152 2
570 158 6
570 211 1
570 215 3
570 332 1
570 407 4
570 702 1
570 944 1
570 1167 1
571 120 1
571 151 1
571 179 2
571 195 1
571 233 1
571 238 1
571 271 1
571 338 1
571 635 1
571 641 1
571 652 1
571 840 3
571 908 1
571 1168 1
572 5 1
572 59 1
572 63 1
572 65 1
572 76 1
572 132 3
572 160 3
572 177 1
572 179 1
572 187 2
572 199 1
572 234 1
572 241 6
572 342 1
572 348 1
572 394 1
572 436 1
572 602 1
572 1011 1
573 3 3
573 79 1
573 87 1
573 102 2
573 171 1
573 178 1
573 206 3
573 214 1
573 218 3
573 306 1
573 365 1
573 372 1
573 645 1
573 653 2
573 660 3
573 833 1
573 1159 1
574 1 1
574 3 3
574 4 1
574 21 1
574 45 1
574 70 1
574 75 1
574 108 1
574 157 1
574 283 1
574 364 7
574 395 1
574 506 3
574 582 2
574 636 1
574 756 1
574 802 1
574 858 4
575 74 1
575 150 4
575 165 3
575 259 2
575 301 1
575 366 2
575 442 1
575 486 1
575 566 1
575 679 2
575 742 1
575 815 1
575 820 1
575 947 1
575 1100 1
575 1117 3
576 47 1
576 51 1
576 63 1
576 75 2
576 103 2
576 120 1
576 153 1
576 171 1
576 184 1
576 192 2
576 193 5
576 302 1
576 382 1
576 412 1
576 542 1
576 595 5
576 604 2
576 745 1
577 64 1
577 76 1
577 80 1
577 85 1
577 203 1
577 378 7
577 437 1
577 466 1
577 606 3
577 645 1
577 730 2
577 849 1
577 913 5
577 972 1
577 1023 1
578 21 2
578 53 1
578 103 1
578 153 4
578 191 1
578 222 2
578 285 1
578 327 1
578 331 1
578 334 1
578 449 2
578 484 1
578 595 1
578 642 1
578 779 1
578 884 1
578 944 1
578 947 1
579 82 2
579 83 1
579 151 1
579 173 1
579 175 1
579 179 1
579 241 2
579 368 1
579 394 2
579 399 1
579 510 2
579 640 1
579 739 1
579 874 1
580 32 2
580 151 2
580 252 1
580 285 1
580 302 1
580 346 3
580 394 1
580 455 2
580 527 1
580 611 1
580 667 2
580 754 1
581 45 4
581 66 5
581 70 1
581 75 4
581 76 1
581 80 7
581 103 1
581 109 1
581 139 2
581 175 2
581 285 1
581 306 1
581 311 1
581 327 1
581 345 1
581 363 1
581 385 1
581 566 1
581 903 1
582 15 1
582 65 1
582 132 1
582 149 1
582 179 1
582 240 1
582 340 1
582 425 1
582 436 2
582 775 1
582 856 1
582 874 1
582 965 2
582 1021 1
582 1169 1
583 215 1
583 286 2
583 295 1
583 301 2
583 302 1
583 332 1
583 343 8
583 378 3
583 515 1
583 620 2
583 661 1
583 739 1
583 962 3
583 1100 1
584 80 3
584 82 1
584 104 1
584 184 1
584 207 1
584 279 1
584 359 1
584 371 1
584 393 1
584 594 1
584 685 1
584 738 3
584 821 6
584 865 1
585 51 1
585 191 3
585 203 1
585 285 1
585 302 1
585 376 1
585 378 5
585 437 2
585 511 1
585 528 4
585 560 1
585 1084 3
585 1170 1
586 39 1
586 116 1
586 139 5
586 167 1
586 229 1
586 305 1
586 571 1
586 622 1
586 661 1
586 686 1
586 797 1
586 910 1
586 992 1
586 1158 1
587 21 5
587 74 1
587 75 2
587 99 2
587 102 4
587 143 1
587 153 4
587 238 1
587 291 1
587 334 2
587 378 1
587 419 2
587 854 1
587 951 1
588 1 4
588 13 1
588 44 1
588 50 2
588 51 1
588 95 1
588 100 1
588 106 1
588 218 2
588 219 1
588 238 1
588 302 1
588 332 1
588 372 1
588 375 1
588 454 1
588 460 4
588 472 2
588 478 4
588 514 1
588 556 1
588 800 1
588 892 1
588 960 1
588 1019 1
588 1085 1
589 28 1
589 32 2
589 45 2
589 66 1
589 133 1
589 137 2
589 144 1
589 156 1
589 187 1
589 188 2
589 240 1
589 245 1
589 320 1
589 616 2
589 694 2
589 804 1
589 1009 2
589 1092 4
589 1171 1
589 1172 1
590 13 1
590 29 1
590 39 2
590 74 1
590 90 1
590 158 2
590 245 4
590 254 1
590 300 1
590 306 3
590 356 1
590 364 2
590 585 1
590 602 1
590 688 1
590 785 2
590 862 2
591 47 1
591 64 1
591 76 1
591 77 1
591 80 3
591 158 2
591 161 2
591 193 1
591 257 1
591 391 3
591 408 1
591 429 1
591 442 1
591 446 1
591 478 2
591 576 5
591 604 1
591 641 1
591 655 1
591 852 2
592 15 2
592 87 1
592 150 1
592 179 1
592 189 1
592 213 1
592 230 3
592 245 1
592 283 1
592 372 2
592 374 1
592 376 2
592 407 2
592 415 1
592 440 3
592 500 1
592 701 3
592 800 1
592 871 1
592 992 2
592 1173 1
593 51 1
593 53 1
593 75 1
593 87 2
593 110 1
593 153 1
593 168 1
593 172 1
593 203 3
593 216 1
593 238 2
593 267 1
593 286 1
593 290 1
593 338 1
593 404 1
593 531 1
593 840 2
593 884 1
593 908 1
593 910 1
593 954 1
594 7 6
594 13 3
594 21 2
594 70 2
594 98 2
594 143 2
594 183 1
594 186 1
594 375 2
594 379 1
594 853 2
595 199 6
595 409 1
595 519 2
595 667 6
595 711 6
595 722 1
595 896 1
596 10 3
596 25 1
596 70 1
596 85 1
596 102 1
596 157 1
596 167 1
596 222 1
596 266 1
596 267 1
596 312 2
596 378 1
596 569 1
596 590 1
596 913 5
597 15 7
597 21 1
597 77 1
597 80 2
597 117 1
597 169 1
597 179 1
597 186 1
597 442 1
597 635 1
597 772 1
597 821 1
597 876 1
597 879 1
597 1091 1
598 54 1
598 77 1
598 80 1
598 117 2
598 139 4
598 191 1
598 229 1
598 269 2
598 285 1
598 363 3
598 365 1
598 404 1
598 571 1
598 779 1
598 871 1
599 28 1
599 45 2
599 65 1
599 66 1
599 133 1
599 137 2
599 144 2
599 156 1
599 188 2
599 190 1
599 240 1
599 245 1
599 320 1
599 471 1
599 616 3
599 694 1
599 804 1
599 866 1
599 966 1
599 1009 1
599 1092 1
599 1171 2
599 1172 1
599 1174 1
600 32 1
600 98 1
600 160 1
600 175 1
600 187 1
600 208 2
600 240 1
600 442 5
600 505 2
600 644 1
600 701 1
600 888 1
600 893 1
600 1014 1
601 15 1
601 50 6
601 51 1
601 64 1
601 65 1
601 71 1
601 116 1
601 158 1
601 238 1
601 257 2
601 278 2
601 303 2
601 331 1
601 336 2
601 444 2
601 508 1
601 527 1
601 797 1
601 834 1
601 888 1
601 1099 1
602 132 6
602 241 2
602 298 1
602 312 1
602 346 1
602 377 1
602 399 2
602 561 1
602 562 2
602 595 2
602 713 1
602 730 1
602 754 2
602 874 1
602 887 1
602 916 5
603 34 1
603 45 1
603 80 3
603 96 1
603 104 1
603 109 1
603 151 1
603 153 1
603 160 1
603 190 1
603 192 1
603 222 2
603 240 1
603 363 1
603 382 1
603 387 1
603 412 1
603 414 1
603 415 1
603 499 4
603 503 2
603 521 1
603 584 1
603 697 1
603 757 1
603 784 1
603 847 1
603 902 1
604 10 5
604 22 1
604 39 3
604 63 1
604 64 1
604 85 1
604 143 1
604 184 1
604 212 5
604 405 1
604 458 1
604 460 1
604 484 4
604 576 1
604 738 2
604 913 1
604 915 1
604 1048 2
605 32 1
605 285 1
605 301 1
605 334 1
605 412 4
605 633 2
605 699 1
605 724 1
605 959 1
605 1136 1
605 1169 1
606 52 2
606 65 1
606 90 1
606 122 4
606 174 3
606 179 1
606 183 1
606 187 1
606 206 1
606 306 1
606 404 4
606 426 2
606 512 1
606 685 1
606 806 1
606 992 1
607 80 1
607 95 1
607 171 1
607 193 4
607 248 1
607 276 1
607 285 1
607 342 1
607 368 1
607 372 1
607 489 2
607 518 1
607 586 1
607 604 8
607 653 2
607 672 1
607 876 1
607 937 2
607 944 1
607 1085 1
608 11 1
608 19 1
608 28 1
608 32 1
608 59 1
608 81 1
608 86 1
608 178 1
608 226 2
608 257 1
608 264 1
608 285 1
608 301 1
608 382 1
608 393 1
608 444 4
608 510 1
608 527 2
608 530 1
608 609 1
608 662 2
608 747 1
608 806 1
608 876 1
608 1073 1
608 1119 1
609 34 2
609 175 2
609 183 1
609 234 1
609 301 2
609 489 1
609 506 1
609 582 3
609 853 1
609 892 3
609 1154 1
610 216 5
610 259 1
610 275 1
610 318 2
610 377 1
610 432 1
610 475 1
610 489 2
610 892 3
610 1025 1
610 1052 1
611 34 1
611 45 2
611 112 1
611 116 1
611 130 1
611 133 2
611 142 1
611 150 1
611 185 1
611 220 4
611 295 1
611 351 1
611 573 1
611 574 3
611 592 1
611 865 1
611 875 1
611 1066 1
611 1092 2
611 1164 1
611 1171 1
611 1175 1
612 105 1
612 139 1
612 238 1
612 300 1
612 379 1
612 416 1
612 463 2
612 507 1
612 613 1
612 784 1
612 819 1
612 1176 1
613 3 1
613 40 3
613 45 1
613 70 2
613 75 2
613 80 2
613 109 1
613 168 1
613 192 5
613 238 2
613 276 1
613 281 1
613 294 1
613 324 1
613 512 1
613 690 1
613 864 1
614 125 2
614 193 2
614 228 1
614 256 2
614 386 2
614 463 1
614 478 1
614 481 2
614 515 5
614 636 1
614 692 4
614 804 1
614 821 1
614 1065 1
614 1145 1
615 1 1
615 3 2
615 45 1
615 50 2
615 53 1
615 70 1
615 75 6
615 80 1
615 111 1
615 135 1
615 139 1
615 161 3
615 175 1
615 185 3
615 186 1
615 193 1
615 218 1
615 274 1
615 306 1
615 320 1
615 336 1
615 385 1
615 412 1
615 443 1
615 444 3
615 464 1
615 471 1
615 580 1
615 595 1
615 658 1
615 663 1
615 690 1
615 1052 1
616 47 2
616 55 1
616 76 1
616 186 1
616 187 1
616 316 1
616 338 3
616 393 1
616 415 1
616 442 1
616 512 1
616 527 1
616 576 1
616 621 1
616 724 1
616 891 1
616 927 1
616 1075 1
617 1 1
617 73 3
617 92 1
617 117 1
617 139 2
617 157 2
617 158 1
617 167 2
617 192 1
617 266 4
617 291 5
617 299 1
617 364 1
617 374 1
617 376 2
617 377 1
617 383 1
617 393 1
617 394 1
617 500 1
617 511 1
618 34 3
618 50 1
618 77 1
618 95 1
618 110 1
618 164 1
618 187 1
618 266 1
618 278 4
618 375 1
618 471 6
618 484 2
618 562 2
618 614 1
618 653 4
618 692 2
618 852 1
618 869 1
618 1177 1
619 82 1
619 117 2
619 164 1
619 169 1
619 178 2
619 185 1
619 234 1
619 515 1
619 581 1
619 589 4
619 673 1
619 780 1
619 821 1
619 865 3
619 1026 1
619 1080 1
619 1081 1
619 1091 1
620 15 1
620 80 7
620 82 2
620 138 1
620 160 1
620 192 1
620 285 1
620 303 1
620 311 1
620 313 4
620 359 3
620 372 1
620 421 1
620 423 1
620 516 1
620 563 1
620 565 1
620 580 2
620 849 1
620 1158 1
621 64 1
621 123 5
621 186 1
621 285 7
621 313 3
621 334 3
621 372 1
621 565 3
621 614 1
622 58 1
622 115 2
622 153 1
622 179 1
622 214 4
622 317 1
622 324 1
622 560 1
622 584 1
622 598 1
622 613 1
622 637 1
622 653 2
622 660 2
622 868 1
622 919 2
622 1072 1
622 1086 3
622 1159 2
622 1178 3
623 64 1
623 73 1
623 76 1
623 80 2
623 88 1
623 127 1
623 139 2
623 192 2
623 267 1
623 269 2
623 274 4
623 285 2
623 300 2
623 334 2
623 343 1
623 421 2
623 636 2
623 808 1
623 1143 2
624 39 1
624 59 1
624 76 2
624 126 1
624 167 2
624 283 1
624 296 1
624 343 1
624 605 1
624 621 1
624 630 1
624 633 1
624 658 2
624 754 2
624 797 1
624 829 1
624 841 1
624 1105 1
625 15 1
625 32 1
625 112 1
625 158 6
625 183 1
625 250 1
625 300 1
625 302 1
625 303 2
625 334 6
625 363 1
625 366 2
625 394 1
625 412 1
625 481 1
625 509 1
625 515 2
625 530 1
625 542 2
625 554 1
625 867 1
625 876 1
625 1075 1
626 62 2
626 75 2
626 82 1
626 151 1
626 160 1
626 226 2
626 230 12
626 232 1
626 300 5
626 301 2
626 337 1
626 432 1
626 512 1
626 531 2
626 621 1
626 1026 1
626 1080 1
626 1081 1
626 1139 1
627 44 1
627 100 1
627 114 1
627 119 1
627 138 1
627 183 1
627 256 1
627 278 1
627 283 3
627 319 1
627 378 4
627 454 1
627 784 1
628 15 3
628 78 1
628 91 2
628 116 1
628 187 3
628 285 1
628 301 3
628 394 1
628 402 2
628 415 1
628 484 1
628 660 3
628 1100 1
629 51 1
629 77 1
629 95 1
629 171 2
629 186 1
629 187 1
629 193 1
629 196 1
629 207 1
629 216 2
629 228 1
629 250 1
629 256 1
629 315 1
629 441 1
629 442 4
629 478 2
629 486 1
629 506 2
629 554 1
629 574 1
629 595 4
629 604 2
629 610 1
629 677 1
629 701 1
629 957 2
630 34 2
630 74 1
630 78 1
630 167 1
630 179 1
630 183 1
630 186 1
630 187 2
630 266 1
630 298 2
630 303 1
630 306 1
630 312 4
630 332 1
630 371 2
630 458 2
630 506 6
630 576 3
630 649 1
630 703 1
630 914 1
630 1056 1
631 14 1
631 50 1
631 102 4
631 163 1
631 194 2
631 215 1
631 264 1
631 339 2
631 402 1
631 412 1
631 415 1
631 425 2
631 462 1
631 471 10
631 473 1
631 489 1
631 567 2
631 610 3
631 677 5
631 837 1
631 846 1
631 1076 1
632 21 1
632 29 1
632 64 1
632 130 3
632 132 2
632 133 1
632 142 1
632 143 3
632 144 2
632 168 2
632 175 1
632 212 1
632 225 1
632 240 1
632 281 2
632 383 1
632 458 2
632 460 1
632 527 1
632 657 1
632 698 1
632 825 1
632 854 4
632 1028 1
632 1108 1
632 1179 3
632 1180 1
633 11 1
633 88 1
633 186 1
633 192 1
633 237 1
633 238 1
633 259 1
633 305 1
633 365 2
633 376 4
633 443 2
633 468 1
633 533 1
633 605 1
633 821 4
633 865 2
633 1089 1
633 1140 4
634 21 1
634 59 1
634 64 1
634 65 1
634 107 1
634 132 8
634 178 1
634 179 1
634 187 1
634 191 1
634 230 3
634 267 1
634 298 3
634 399 3
634 590 2
634 602 2
634 604 2
634 661 3
634 941 1
634 965 1
635 27 1
635 28 1
635 62 1
635 65 5
635 77 1
635 81 1
635 95 2
635 160 11
635 177 3
635 187 7
635 190 1
635 216 2
635 229 1
635 259 7
635 363 1
635 423 1
635 429 2
635 512 4
635 602 1
635 638 1
635 651 2
635 744 1
636 40 1
636 120 6
636 123 3
636 131 1
636 183 2
636 273 2
636 285 3
636 343 2
636 481 1
636 512 1
636 515 6
636 716 1
636 919 1
636 1001 1
637 95 1
637 158 1
637 183 1
637 187 2
637 212 1
637 301 1
637 302 4
637 552 3
637 574 1
637 592 1
637 595 1
637 603 1
637 609 1
637 640 2
637 673 1
637 752 1
637 853 1
637 1013 1
637 1092 2
637 1139 1
638 3 7
638 19 1
638 45 2
638 59 1
638 64 1
638 178 1
638 183 1
638 192 3
638 199 3
638 215 1
638 318 1
638 340 2
638 378 4
638 394 1
638 773 1
638 816 2
638 861 1
638 892 1
638 1071 5
638 1102 1
639 5 1
639 74 1
639 80 2
639 114 1
639 139 2
639 154 1
639 159 1
639 186 1
639 269 1
639 278 1
639 285 3
639 363 4
639 384 2
639 415 2
639 423 1
639 424 1
639 538 3
639 584 3
639 662 2
639 711 1
639 881 1
639 942 1
639 1098 1
640 6 1
640 44 1
640 72 1
640 92 1
640 118 1
640 127 1
640 133 2
640 137 1
640 184 1
640 320 7
640 341 1
640 388 1
640 458 3
640 492 1
640 576 1
640 612 1
640 625 2
640 673 1
640 694 1
640 729 2
640 804 1
640 858 1
640 942 1
640 946 2
640 1065 1
641 32 1
641 59 1
641 65 1
641 117 1
641 169 2
641 285 1
641 340 3
641 421 1
641 475 1
641 518 1
641 574 1
641 592 1
641 611 2
641 615 2
641 636 2
641 692 3
641 696 3
641 991 1
641 1034 4
641 1035 1
641 1060 1
641 1066 3
641 1118 1
641 1129 1
642 15 1
642 45 2
642 53 1
642 64 1
642 70 1
642 75 1
642 80 5
642 107 1
642 143 1
642 153 1
642 167 5
642 278 1
642 283 1
642 285 5
642 291 1
642 306 2
642 364 1
642 515 1
642 821 2
642 1059 1
642 1114 1
643 29 1
643 44 1
643 66 3
643 167 1
643 197 5
643 203 2
643 286 2
643 378 6
643 381 1
643 458 1
643 503 3
643 540 1
643 583 1
643 606 2
643 624 4
643 773 1
643 775 1
643 1017 2
643 1083 1
643 1084 6
644 1 1
644 19 1
644 73 1
644 77 1
644 125 1
644 142 1
644 160 7
644 215 1
644 226 2
644 247 1
644 315 4
644 430 1
644 481 1
644 512 2
644 515 1
644 576 1
644 602 1
644 992 1
644 1119 1
644 1181 1
644 1182 1
645 187 1
645 192 1
645 215 1
645 226 1
645 229 2
645 473 2
645 742 2
645 785 1
645 880 1
645 901 2
645 1183 1
646 64 1
646 80 1
646 114 1
646 117 6
646 160 1
646 187 1
646 229 1
646 241 3
646 285 2
646 466 1
646 821 5
646 865 1
646 896 2
646 1122 1
647 32 2
647 65 1
647 205 1
647 259 6
647 340 6
647 530 5
647 581 1
647 586 7
647 930 1
648 15 1
648 50 1
648 74 1
648 125 5
648 175 1
648 187 1
648 193 1
648 227 1
648 285 1
648 303 3
648 322 7
648 347 1
648 462 1
648 481 1
648 649 1
648 779 1
648 797 2
648 846 1
648 986 2
649 21 1
649 46 4
649 50 6
649 70 1
649 75 1
649 77 1
649 80 1
649 102 1
649 195 3
649 211 1
649 215 1
649 218 1
649 315 2
649 340 1
649 419 9
649 442 5
649 515 1
649 578 4
649 1067 1
650 21 1
650 34 1
650 70 3
650 86 1
650 87 1
650 103 1
650 153 4
650 204 5
650 212 1
650 215 1
650 227 3
650 291 1
650 335 2
650 460 1
650 462 1
650 471 2
650 472 3
650 747 2
650 820 3
651 1 1
651 3 1
651 40 1
651 102 2
651 211 1
651 218 1
651 232 1
651 234 1
651 256 1
651 403 1
651 412 2
651 566 1
651 632 1
651 701 1
651 852 2
651 880 6
651 882 1
652 59 3
652 98 2
652 187 6
652 215 1
652 257 1
652 273 1
652 279 2
652 285 1
652 295 1
652 318 1
652 335 1
652 357 1
652 383 1
652 393 1
652 471 1
652 477 7
652 484 5
652 556 2
652 809 1
652 876 1
652 880 1
652 1168 1
653 64 1
653 66 1
653 125 2
653 170 1
653 187 1
653 195 1
653 196 2
653 226 2
653 227 1
653 232 1
653 240 1
653 266 1
653 272 1
653 340 1
653 347 1
653 363 1
653 375 1
653 391 1
653 412 1
653 427 1
653 442 9
653 471 1
653 533 1
653 671 1
653 810 2
653 851 1
653 863 1
653 876 1
653 888 3
653 908 1
654 64 1
654 80 1
654 83 2
654 91 1
654 109 1
654 285 1
654 291 1
654 303 1
654 393 1
654 689 1
654 719 2
654 821 2
654 850 1
654 1041 1
654 1065 2
655 28 8
655 42 2
655 50 1
655 70 6
655 75 2
655 76 1
655 81 1
655 95 2
655 102 2
655 103 1
655 150 1
655 160 1
655 161 1
655 171 1
655 177 2
655 186 1
655 218 2
655 301 3
655 318 1
655 375 1
655 432 1
655 542 1
655 990 1
655 1011 1
655 1021 1
655 1031 1
656 16 4
656 25 3
656 257 1
656 303 1
656 335 1
656 372 1
656 413 4
656 523 1
656 570 1
656 705 3
656 791 1
656 822 1
656 929 1
656 1184 3
656 1185 1
656 1186 2
657 64 1
657 139 1
657 183 1
657 269 1
657 283 2
657 286 1
657 363 1
657 454 1
657 463 3
657 538 1
657 584 1
657 734 1
657 784 1
657 812 2
657 908 1
657 909 1
657 1103 1
658 1 1
658 9 1
658 15 1
658 21 1
658 46 2
658 50 1
658 102 1
658 170 5
658 218 3
658 257 1
658 301 1
658 310 1
658 350 1
658 442 1
658 471 1
658 486 1
658 590 1
658 633 1
658 661 1
658 730 1
658 803 1
658 854 1
658 991 1
658 1077 1
658 1187 1
659 59 1
659 64 1
659 70 3
659 109 1
659 151 2
659 167 5
659 169 1
659 192 2
659 195 2
659 229 1
659 245 1
659 254 1
659 285 1
659 306 5
659 313 2
659 363 1
659 365 2
659 387 2
659 397 3
659 442 1
659 464 2
659 589 1
659 635 1
659 658 2
659 826 2
659 870 2
659 1147 2
660 5 2
660 13 1
660 29 2
660 39 2
660 43 1
660 66 1
660 75 1
660 90 1
660 170 1
660 183 1
660 206 3
660 254 3
660 283 1
660 305 1
660 334 2
660 338 2
660 404 1
660 407 1
660 409 1
660 695 1
660 896 1
660 903 1
660 910 1
661 13 2
661 74 1
661 99 2
661 198 1
661 227 4
661 336 1
661 366 1
661 474 1
661 489 3
661 603 7
661 642 3
661 786 2
661 875 3
661 912 3
661 1143 1
662 10 1
662 53 1
662 67 1
662 70 1
662 110 1
662 123 2
662 143 1
662 153 1
662 158 1
662 187 1
662 192 3
662 232 1
662 323 1
662 393 1
662 471 2
662 502 1
662 515 3
662 527 1
662 531 1
662 622 3
662 633 1
662 634 1
662 686 2
662 759 1
662 797 1
662 806 1
662 908 1
662 1101 1
663 5 1
663 10 1
663 65 1
663 70 1
663 82 5
663 110 1
663 132 3
663 180 1
663 241 2
663 279 2
663 295 1
663 377 1
663 394 3
663 436 1
663 489 6
663 515 3
663 631 1
663 659 1
663 951 1
663 965 1
664 21 1
664 47 2
664 62 1
664 80 1
664 158 1
664 196 3
664 227 2
664 274 1
664 291 5
664 303 1
664 382 1
664 391 10
664 442 3
664 470 1
664 478 2
664 484 1
664 1063 5
665 40 1
665 74 1
665 86 1
665 139 4
665 178 1
665 189 1
665 191 1
665 216 1
665 256 2
665 325 1
665 363 1
665 404 1
665 454 1
665 463 1
665 576 1
665 602 1
665 637 1
665 721 1
665 734 1
665 812 3
665 837 1
666 10 1
666 13 1
666 35 8
666 117 1
666 141 1
666 167 2
666 186 1
666 215 1
666 244 1
666 259 2
666 394 1
666 412 1
666 556 1
666 661 1
666 673 1
666 678 6
666 809 1
666 892 1
666 933 2
666 1153 1
667 186 2
667 206 2
667 285 4
667 378 2
667 415 6
667 439 2
667 533 2
667 582 1
667 772 1
668 10 2
668 70 2
668 80 10
668 88 3
668 91 1
668 122 1
668 153 2
668 195 1
668 202 1
668 248 1
668 257 1
668 260 4
668 279 4
668 305 1
668 327 1
668 372 1
668 404 1
668 446 1
668 650 1
668 652 1
669 21 2
669 45 2
669 48 2
669 70 3
669 74 1
669 75 2
669 86 1
669 157 1
669 161 2
669 167 6
669 274 2
669 284 1
669 415 2
669 1077 1
670 15 1
670 80 1
670 107 1
670 157 1
670 160 5
670 214 2
670 245 6
670 257 1
670 294 1
670 296 1
670 298 2
670 339 1
670 614 1
670 685 1
670 1111 5
670 1188 2
671 5 1
671 59 5
671 82 1
671 83 1
671 110 1
671 132 2
671 158 1
671 175 1
671 178 1
671 179 1
671 215 1
671 241 1
671 285 1
671 302 1
671 303 1
671 312 6
671 331 2
671 343 3
671 346 1
671 542 1
671 563 1
671 724 2
671 739 3
671 830 1
671 965 2
672 15 1
672 74 1
672 80 10
672 81 2
672 150 1
672 168 1
672 175 3
672 205 2
672 212 1
672 252 1
672 269 1
672 277 2
672 291 1
672 421 1
672 576 1
672 635 1
672 718 1
672 797 1
672 808 1
672 852 2
672 960 1
673 81 1
673 142 1
673 167 4
673 186 5
673 189 8
673 303 1
673 340 1
673 371 7
673 404 1
673 407 1
673 409 2
673 442 1
673 491 1
673 580 4
673 635 2
673 695 2
673 730 1
673 835 2
674 14 1
674 78 1
674 109 1
674 139 1
674 176 8
674 179 1
674 192 3
674 195 2
674 202 1
674 216 1
674 229 2
674 238 1
674 266 1
674 336 2
674 567 1
674 660 1
674 835 1
674 859 5
674 876 1
674 877 3
674 1189 1
675 5 2
675 21 1
675 37 1
675 76 1
675 90 2
675 110 1
675 218 1
675 306 3
675 389 10
675 393 1
675 460 1
675 475 2
675 506 1
675 556 1
675 630 1
675 705 1
675 868 1
675 973 1
675 992 1
675 1084 2
675 1111 1
675 1113 1
675 1133 1
675 1137 1
675 1138 1
675 1166 1
676 19 1
676 27 1
676 34 1
676 132 2
676 179 1
676 212 1
676 220 2
676 221 1
676 223 1
676 230 1
676 257 2
676 279 3
676 318 1
676 338 3
676 489 2
676 506 3
676 527 2
676 528 2
676 662 1
676 692 1
676 711 1
676 809 2
676 957 1
676 1118 1
677 9 2
677 15 1
677 34 1
677 59 2
677 76 1
677 90 1
677 137 1
677 149 2
677 157 1
677 169 1
677 195 1
677 254 1
677 258 1
677 259 1
677 265 1
677 278 1
677 281 1
677 421 1
677 429 2
677 432 1
677 454 1
677 465 4
677 638 1
677 804 1
677 1132 1
677 1164 1
678 65 2
678 76 1
678 123 5
678 187 6
678 216 2
678 285 2
678 359 1
678 372 1
678 481 2
678 537 1
678 605 1
678 692 3
678 779 1
678 843 1
678 935 1
678 1091 6
678 1139 1
679 15 1
679 35 4
679 77 2
679 110 1
679 114 1
679 121 1
679 140 1
679 168 1
679 224 1
679 234 1
679 251 1
679 331 1
679 332 1
679 338 1
679 366 1
679 404 1
679 413 3
679 633 1
679 804 1
679 835 1
679 865 1
679 876 1
679 992 2
679 1171 1
679 1190 1
679 1191 6
680 28 1
680 37 1
680 163 1
680 175 2
680 193 1
680 218 1
680 242 1
680 245 4
680 303 1
680 379 1
680 401 4
680 471 7
680 481 1
680 602 1
680 662 1
680 939 6
680 1133 1
681 39 2
681 74 1
681 109 1
681 116 1
681 175 1
681 234 1
681 376 3
681 396 1
681 460 1
681 471 1
681 526 3
681 530 4
681 582 7
681 711 1
681 902 5
681 1096 1
682 40 1
682 43 1
682 65 2
682 67 1
682 123 8
682 270 3
682 273 2
682 311 2
682 313 8
682 371 2
682 565 2
682 580 4
682 647 1
682 701 1
682 716 2
682 934 1
683 41 1
683 66 1
683 74 1
683 83 1
683 109 2
683 142 1
683 150 1
683 192 7
683 202 1
683 238 2
683 252 1
683 285 1
683 302 1
683 324 1
683 340 1
683 343 2
683 414 1
683 525 1
683 530 1
683 685 1
683 694 5
683 773 1
683 814 1
683 832 1
683 849 1
683 852 1
683 854 1
683 901 1
684 7 1
684 20 1
684 87 1
684 92 1
684 216 2
684 290 2
684 307 1
684 375 1
684 378 3
684 437 2
684 527 1
684 592 1
684 880 2
684 908 2
684 972 2
684 1144 1
685 21 2
685 28 1
685 32 3
685 52 1
685 65 2
685 66 1
685 76 1
685 87 1
685 96 1
685 110 1
685 154 6
685 232 1
685 252 1
685 364 1
685 365 1
685 378 1
685 393 1
685 396 1
685 432 1
685 499 4
685 503 2
685 669 1
685 773 1
685 806 1
685 1038 1
685 1123 1
685 1164 1
685 1192 1
686 91 1
686 123 3
686 170 1
686 186 2
686 266 2
686 286 1
686 317 1
686 325 1
686 343 2
686 452 1
686 512 1
686 531 1
686 608 1
686 880 1
686 891 1
686 934 1
686 1038 1
686 1142 1
686 1175 7
687 1 1
687 10 1
687 15 2
687 29 1
687 39 1
687 41 1
687 45 1
687 66 1
687 70 1
687 74 1
687 75 1
687 80 2
687 82 1
687 90 3
687 109 1
687 163 1
687 168 1
687 178 1
687 184 1
687 202 1
687 232 1
687 234 1
687 254 4
687 311 5
687 525 2
687 582 1
687 585 1
687 657 1
687 670 1
687 706 1
687 785 4
687 821 1
687 898 1
687 903 1
687 1013 1
687 1131 2
687 1193 2
687 1194 1
687 1195 2
688 25 1
688 57 3
688 80 3
688 139 1
688 192 2
688 193 1
688 302 1
688 332 2
688 363 5
688 421 2
688 426 1
688 466 1
688 576 1
688 584 2
688 601 2
688 734 1
688 819 1
688 904 1
688 908 1
688 1032 1
689 35 2
689 109 1
689 158 2
689 160 1
689 175 1
689 238 1
689 278 1
689 382 1
689 396 4
689 397 2
689 415 1
689 419 1
689 422 1
689 481 1
689 526 4
689 531 1
689 581 1
689 592 1
689 670 1
689 711 2
689 804 1
689 978 1
689 1096 1
689 1181 1
690 64 1
690 76 1
690 80 3
690 186 2
690 259 2
690 283 1
690 311 1
690 338 3
690 340 4
690 345 1
690 364 2
690 365 1
690 383 2
690 481 1
690 504 1
690 581 1
690 582 1
690 801 1
690 802 1
690 900 1
690 1096 1
691 143 1
691 275 1
691 331 1
691 425 1
691 442 1
691 639 1
691 646 9
691 730 1
691 797 1
691 1066 1
691 1122 1
692 43 1
692 70 3
692 139 8
692 256 1
692 269 4
692 311 1
692 369 2
692 381 2
692 425 2
692 530 1
692 539 1
692 542 3
692 577 2
692 580 3
692 1196 1
693 21 4
693 25 6
693 42 2
693 86 1
693 87 1
693 95 1
693 295 1
693 333 1
693 366 2
693 424 1
693 442 2
693 460 2
693 482 1
693 489 3
693 525 2
693 527 1
693 528 2
693 556 1
693 570 1
693 642 2
693 692 4
693 834 1
693 852 1
693 875 1
693 914 1
693 1050 1
693 1118 1
693 1141 1
693 1197 3
694 29 1
694 35 2
694 63 6
694 66 1
694 243 1
694 378 2
694 612 1
694 656 1
694 825 1
694 1017 2
694 1083 1
694 1084 1
694 1111 11
694 1138 1
694 1198 1
695 59 2
695 70 1
695 80 1
695 117 1
695 151 2
695 171 3
695 178 1
695 183 1
695 186 1
695 238 1
695 244 1
695 259 2
695 365 1
695 495 1
695 533 1
695 585 1
695 649 1
695 701 1
695 730 1
695 802 1
695 804 1
695 821 2
695 865 5
695 1022 2
695 1058 5
695 1075 1
695 1165 1
696 3 3
696 15 2
696 27 1
696 40 2
696 44 1
696 78 1
696 183 1
696 192 1
696 193 2
696 227 1
696 273 1
696 279 1
696 285 1
696 301 5
696 340 1
696 402 2
696 415 1
696 425 1
696 484 1
696 642 1
696 963 1
696 1100 1
696 1118 1
697 5 1
697 10 1
697 21 1
697 41 1
697 44 1
697 59 1
697 64 1
697 77 1
697 167 3
697 191 1
697 232 1
697 234 1
697 238 1
697 256 1
697 273 1
697 321 1
697 372 1
697 506 1
697 546 3
697 597 1
697 918 1
697 1032 1
697 1060 1
697 1095 8
697 1100 1
697 1136 1
698 75 1
698 129 1
698 175 3
698 183 1
698 187 1
698 193 4
698 278 2
698 314 1
698 315 1
698 318 2
698 375 2
698 393 2
698 412 2
698 429 2
698 512 1
698 595 6
698 604 7
698 639 1
698 931 1
698 937 1
698 1157 2
699 65 1
699 67 1
699 75 1
699 87 1
699 90 1
699 100 1
699 154 2
699 170 1
699 180 1
699 199 1
699 206 6
699 313 6
699 334 2
699 356 1
699 366 1
699 432 1
699 584 5
699 666 2
699 896 1
699 934 1
700 32 2
700 64 1
700 171 1
700 183 2
700 192 1
700 226 1
700 252 1
700 259 1
700 275 1
700 301 2
700 339 1
700 386 1
700 425 1
700 454 1
700 527 1
700 560 1
700 561 1
700 611 2
700 617 1
700 642 2
700 672 2
700 684 1
700 702 1
700 724 1
700 778 2
700 801 1
700 888 1
700 893 1
700 1199 1
701 24 1
701 32 2
701 59 2
701 64 1
701 71 1
701 78 2
701 83 4
701 183 1
701 187 1
701 230 4
701 296 1
701 312 1
701 332 2
701 368 1
701 395 1
701 408 1
701 527 3
701 661 5
701 678 1
701 713 1
701 874 1
701 936 1
701 939 1
701 1038 3
702 5 1
702 44 1
702 110 1
702 119 1
702 170 1
702 175 2
702 176 1
702 183 1
702 186 1
702 235 1
702 256 1
702 259 4
702 280 5
702 296 2
702 327 1
702 404 1
702 422 4
702 504 1
702 578 1
702 598 1
702 611 1
702 657 1
702 661 3
702 705 1
702 738 2
702 744 2
702 777 1
702 843 4
702 876 1
702 939 2
702 983 1
703 1 2
703 15 1
703 31 1
703 32 1
703 58 1
703 109 2
703 179 1
703 237 2
703 257 1
703 266 1
703 267 1
703 285 4
703 289 1
703 315 1
703 336 1
703 340 1
703 343 1
703 364 1
703 383 1
703 397 1
703 514 1
703 518 1
703 539 1
703 571 4
703 592 1
703 670 1
703 877 4
703 944 1
704 51 3
704 75 1
704 102 2
704 195 12
704 227 1
704 249 2
704 264 4
704 388 2
704 478 1
704 497 1
704 534 3
704 621 1
704 645 1
704 973 1
704 1100 1
705 82 1
705 120 1
705 132 1
705 151 2
705 162 1
705 193 1
705 232 1
705 264 3
705 279 5
705 392 2
705 412 2
705 466 1
705 473 1
705 507 1
705 561 2
705 595 1
705 641 1
705 705 1
705 840 3
706 1 2
706 13 1
706 25 1
706 29 1
706 39 2
706 79 2
706 84 3
706 87 1
706 90 2
706 110 1
706 254 1
706 303 1
706 359 1
706 379 1
706 390 1
706 405 1
706 494 1
706 601 1
706 626 1
706 660 2
706 763 2
706 792 1
706 1045 1
706 1072 1
706 1167 1
706 1200 1
707 29 10
707 39 3
707 65 2
707 72 1
707 80 2
707 90 1
707 108 1
707 116 1
707 121 2
707 160 1
707 175 2
707 178 1
707 189 1
707 195 1
707 202 1
707 238 1
707 286 1
707 324 1
707 363 3
707 366 1
707 414 1
707 465 1
707 530 2
707 581 2
707 582 2
707 866 1
707 1094 1
707 1123 1
708 15 2
708 21 1
708 32 1
708 59 1
708 76 1
708 95 2
708 198 1
708 213 1
708 216 1
708 238 1
708 259 2
708 339 1
708 345 7
708 362 1
708 425 2
708 471 3
708 609 1
708 689 3
708 758 2
708 798 2
708 806 1
709 14 1
709 51 4
709 65 1
709 139 7
709 158 1
709 175 1
709 200 1
709 238 1
709 259 1
709 319 1
709 338 2
709 421 1
709 445 1
709 515 3
709 516 1
709 594 3
709 617 2
709 686 1
709 916 1
709 944 7
709 1056 1
709 1120 1
709 1167 1
710 66 1
710 68 1
710 70 3
710 74 1
710 114 1
710 130 1
710 235 1
710 278 1
710 305 9
710 306 1
710 409 1
710 415 5
710 432 1
710 564 3
710 942 1
710 1035 2
710 1135 2
710 1157 1
711 1 1
711 11 4
711 116 1
711 145 1
711 163 1
711 169 1
711 170 1
711 185 1
711 259 2
711 280 1
711 346 1
711 370 1
711 419 1
711 510 1
711 563 1
711 591 1
711 594 1
711 616 1
711 696 7
711 724 1
711 759 3
711 825 2
711 1011 1
711 1039 2
711 1088 1
711 1179 1
712 5 1
712 21 1
712 29 11
712 35 1
712 37 1
712 70 3
712 80 1
712 109 1
712 153 1
712 191 1
712 192 2
712 195 1
712 232 1
712 238 2
712 257 1
712 285 3
712 302 1
712 331 1
712 336 2
712 366 1
712 419 1
712 421 2
712 427 1
712 546 1
712 571 1
712 602 1
712 616 1
712 635 1
712 670 1
712 717 1
712 719 1
712 758 1
712 784 1
712 814 4
712 843 1
712 897 1
712 940 1
712 964 1
712 1030 1
713 10 1
713 27 1
713 58 1
713 98 2
713 158 1
713 176 2
713 213 1
713 224 1
713 238 1
713 256 3
713 285 1
713 359 1
713 498 2
713 511 6
713 512 3
713 516 1
713 554 1
713 610 2
713 677 2
713 710 1
713 736 1
713 794 10
713 891 2
714 1 3
714 14 1
714 25 1
714 64 1
714 66 3
714 70 1
714 74 1
714 77 1
714 90 4
714 122 2
714 128 1
714 167 2
714 178 1
714 185 1
714 266 3
714 332 1
714 361 1
714 364 3
714 376 2
714 381 1
714 383 2
714 384 1
714 430 4
714 458 1
714 685 1
714 701 2
714 784 1
714 966 2
714 1112 1
714 1156 1
715 1 1
715 3 3
715 29 1
715 40 2
715 41 3
715 65 3
715 92 1
715 142 1
715 212 1
715 226 1
715 254 1
715 275 1
715 306 2
715 311 1
715 319 1
715 336 1
715 345 1
715 359 1
715 489 2
715 511 2
715 527 1
715 793 1
715 903 1
716 1 1
716 16 1
716 20 1
716 41 2
716 42 1
716 46 1
716 47 2
716 62 2
716 65 1
716 99 1
716 101 1
716 186 1
716 187 1
716 197 3
716 218 1
716 302 1
716 318 1
716 388 1
716 446 3
716 459 1
716 488 1
716 489 1
716 559 1
716 605 1
716 633 1
716 654 2
716 962 4
716 1201 1
717 12 1
717 15 5
717 32 1
717 65 1
717 75 2
717 82 1
717 92 2
717 103 1
717 107 1
717 110 1
717 125 3
717 151 1
717 160 1
717 196 6
717 205 2
717 215 1
717 251 1
717 275 1
717 280 1
717 302 1
717 303 1
717 415 2
717 527 1
717 531 1
717 595 1
717 644 1
717 996 1
717 1202 1
718 1 1
718 5 1
718 15 2
718 45 1
718 80 1
718 105 2
718 109 3
718 121 1
718 169 1
718 185 1
718 187 1
718 226 1
718 235 3
718 273 1
718 303 1
718 335 1
718 381 2
718 515 4
718 595 1
718 673 2
718 748 1
718 797 1
718 883 2
718 1001 1
718 1150 2
719 1 6
719 5 1
719 15 1
719 29 1
719 32 2
719 40 2
719 143 1
719 187 1
719 214 3
719 215 1
719 266 1
719 528 2
719 595 9
719 624 4
719 673 1
719 736 1
719 775 2
719 777 3
719 806 1
719 891 1
719 1123 1
719 1200 1
719 1203 1
720 27 1
720 56 1
720 64 1
720 180 1
720 226 1
720 249 1
720 277 1
720 305 1
720 363 1
720 463 1
720 552 3
720 609 1
720 627 1
720 669 4
720 806 1
720 964 1
720 1112 5
721 39 1
721 74 1
721 75 2
721 114 1
721 139 9
721 158 5
721 180 1
721 243 2
721 256 1
721 269 2
721 526 2
721 551 1
721 630 2
721 662 1
721 887 1
721 910 1
721 942 1
721 1204 2
722 31 1
722 32 1
722 44 1
722 77 1
722 116 2
722 135 2
722 138 1
722 139 3
722 185 2
722 186 2
722 229 2
722 249 3
722 259 1
722 301 1
722 314 1
722 326 1
722 366 1
722 415 14
722 524 2
722 661 2
722 680 1
722 797 2
722 1009 2
722 1075 1
722 1135 4
722 1205 4
723 10 1
723 35 2
723 81 1
723 117 1
723 154 1
723 166 1
723 175 2
723 192 1
723 226 1
723 244 1
723 252 1
723 298 1
723 306 1
723 375 1
723 421 1
723 422 1
723 458 1
723 535 1
723 616 1
723 635 1
723 637 1
723 652 1
723 685 1
723 877 3
723 1084 2
723 1140 3
723 1206 1
724 64 1
724 70 1
724 76 1
724 77 1
724 116 2
724 125 9
724 187 1
724 215 2
724 238 1
724 275 2
724 285 1
724 338 2
724 460 1
724 471 4
724 583 1
724 590 1
724 803 1
724 804 1
724 1074 1
725 3 1
725 95 1
725 186 1
725 191 1
725 241 1
725 243 2
725 256 1
725 261 1
725 272 2
725 285 1
725 301 3
725 340 1
725 442 2
725 574 2
725 632 1
725 672 1
725 701 2
725 888 5
725 908 3
725 914 2
725 1034 1
726 70 2
726 75 2
726 153 2
726 175 1
726 187 2
726 214 4
726 226 1
726 286 1
726 305 1
726 358 1
726 372 1
726 453 1
726 515 1
726 540 1
726 656 2
726 799 1
726 966 3
727 32 2
727 108 1
727 139 2
727 167 1
727 183 1
727 189 7
727 214 1
727 229 1
727 235 2
727 298 1
727 305 3
727 332 1
727 340 2
727 364 1
727 375 3
727 376 1
727 432 1
727 454 2
727 508 1
727 564 2
727 631 1
727 636 1
727 762 2
727 812 1
727 890 1
727 920 1
727 940 2
727 955 3
727 958 1
727 1150 1
727 1159 2
728 28 4
728 47 8
728 50 1
728 170 2
728 178 1
728 215 1
728 216 1
728 218 3
728 259 1
728 305 1
728 414 2
728 460 1
728 471 1
728 531 1
728 652 1
728 680 1
728 814 1
728 837 1
728 1068 2
728 1088 1
728 1155 6
729 29 2
729 77 1
729 90 3
729 104 1
729 116 1
729 127 1
729 175 2
729 177 1
729 186 1
729 187 2
729 195 2
729 205 2
729 212 2
729 259 5
729 333 1
729 375 1
729 409 1
729 415 1
729 419 1
729 425 3
729 429 1
729 457 2
729 530 1
729 595 1
729 685 1
729 744 2
729 834 1
729 843 1
729 1164 1
729 1207 2
729 1208 1
730 11 2
730 21 1
730 47 1
730 55 3
730 75 1
730 160 3
730 185 1
730 186 1
730 193 9
730 207 1
730 216 3
730 229 1
730 234 3
730 291 1
730 309 2
730 415 1
730 430 1
730 471 5
730 478 1
730 484 1
730 527 1
730 531 1
730 592 1
730 662 1
730 664 1
730 718 1
730 733 2
730 814 1
730 876 1
730 918 1
730 984 5
730 1100 1
730 1105 1
730 1164 1
730 1198 3
731 9 2
731 11 1
731 15 1
731 21 1
731 75 2
731 86 1
731 97 1
731 101 1
731 103 1
731 116 1
731 153 4
731 156 1
731 169 1
731 191 1
731 193 1
731 243 1
731 266 1
731 302 1
731 325 1
731 327 1
731 333 1
731 360 1
731 388 1
731 410 1
731 412 1
731 415 1
731 419 1
731 429 2
731 489 2
731 512 1
731 527 1
731 581 1
731 627 1
731 647 1
731 699 2
731 709 1
731 845 1
731 876 1
731 947 1
731 955 1
731 998 2
731 1138 1
731 1209 1
731 1210 1
731 1211 1
732 5 1
732 15 1
732 63 1
732 67 1
732 73 1
732 78 1
732 79 1
732 87 1
732 146 1
732 170 2
732 175 1
732 190 2
732 206 3
732 238 2
732 302 1
732 375 1
732 378 1
732 382 2
732 400 1
732 456 1
732 613 1
732 661 1
732 685 7
732 692 2
732 780 3
732 973 1
732 1038 1
732 1112 1
732 1212 1
733 10 1
733 14 1
733 19 5
733 64 1
733 65 1
733 70 1
733 75 1
733 143 1
733 156 1
733 192 3
733 234 1
733 238 2
733 274 3
733 356 1
733 466 3
733 581 1
733 584 3
733 630 4
733 711 3
733 737 2
733 936 1
733 1063 1
733 1204 2
734 25 1
734 50 1
734 79 1
734 81 3
734 85 1
734 89 1
734 146 1
734 153 1
734 305 1
734 310 1
734 423 1
734 605 1
734 622 1
734 647 5
734 660 1
734 697 3
734 701 3
734 794 2
734 882 1
734 960 2
734 963 5
734 1021 1
734 1126 1
734 1213 2
734 1214 1
735 1 2
735 5 1
735 9 1
735 24 1
735 25 1
735 27 1
735 77 2
735 81 1
735 143 1
735 149 2
735 158 1
735 169 3
735 186 1
735 195 1
735 218 1
735 244 1
735 249 1
735 258 1
735 260 1
735 266 1
735 278 1
735 285 1
735 336 1
735 366 2
735 425 1
735 428 1
735 442 2
735 543 1
735 562 1
735 648 1
735 652 1
735 669 1
735 672 1
735 709 1
735 727 1
735 1049 1
735 1089 2
735 1142 1
735 1215 1
735 1216 1
736 5 1
736 35 1
736 54 1
736 114 1
736 119 1
736 138 1
736 159 1
736 175 1
736 192 7
736 266 1
736 269 2
736 286 1
736 363 2
736 384 4
736 419 1
736 424 1
736 463 7
736 571 3
736 584 6
736 711 16
736 800 1
736 881 1
736 940 1
736 1138 1
737 32 1
737 64 1
737 70 3
737 91 1
737 104 1
737 108 10
737 109 1
737 129 1
737 143 1
737 158 1
737 169 1
737 176 3
737 177 1
737 187 1
737 191 1
737 192 1
737 229 4
737 237 1
737 268 1
737 327 1
737 336 1
737 340 1
737 366 2
737 387 1
737 396 1
737 442 1
737 515 13
737 582 2
737 636 1
737 692 2
737 702 2
737 718 2
737 804 5
737 983 1
737 1044 1
737 1109 1
737 1161 1
737 1174 1
738 3 2
738 5 2
738 62 1
738 64 1
738 86 1
738 95 1
738 126 1
738 143 2
738 149 1
738 157 1
738 161 2
738 167 3
738 183 1
738 192 1
738 212 1
738 232 1
738 238 1
738 253 2
738 299 3
738 301 3
738 306 1
738 334 2
738 388 1
738 412 6
738 430 1
738 491 1
738 626 1
738 634 1
738 647 1
738 702 1
738 834 1
738 923 1
738 971 1
738 1057 1
738 1100 1
739 1 1
739 3 9
739 4 6
739 7 1
739 9 2
739 12 1
739 21 1
739 25 6
739 27 1
739 50 1
739 59 1
739 75 4
739 90 1
739 101 2
739 216 1
739 235 1
739 258 1
739 274 1
739 331 1
739 428 1
739 498 1
739 506 1
739 512 1
739 669 1
739 773 1
739 781 2
739 828 1
739 852 1
739 858 1
739 991 1
739 1084 1
739 1138 1
739 1217 1
740 45 8
740 48 3
740 64 1
740 70 1
740 75 6
740 77 1
740 80 3
740 105 1
740 109 1
740 117 1
740 142 2
740 171 1
740 175 1
740 192 3
740 238 3
740 259 1
740 315 2
740 327 1
740 336 3
740 340 1
740 422 2
740 475 1
740 481 2
740 635 2
740 694 1
740 711 1
740 821 4
740 865 16
740 917 1
740 1030 1
740 1206 1
740 1209 1
741 15 1
741 46 1
741 62 1
741 65 1
741 80 1
741 83 2
741 114 1
741 123 1
741 169 1
741 185 2
741 229 2
741 273 1
741 274 1
741 275 1
741 285 1
741 331 1
741 338 1
741 363 1
741 367 1
741 393 1
741 415 1
741 458 1
741 475 1
741 511 1
741 595 1
741 632 1
741 821 1
741 824 1
741 843 2
741 871 1
741 892 1
741 902 6
741 907 1
741 933 1
741 1142 1
741 1218 1
742 1 1
742 5 1
742 7 1
742 8 1
742 9 1
742 25 15
742 78 1
742 108 1
742 117 2
742 157 1
742 164 1
742 167 19
742 169 1
742 175 1
742 202 1
742 215 2
742 278 1
742 281 1
742 306 9
742 319 1
742 344 4
742 385 2
742 386 1
742 512 1
742 582 3
742 655 1
742 718 1
742 1059 1
742 1064 1
742 1146 4
742 1156 1
742 1211 1
742 1219 1
743 3 6
743 5 3
743 21 3
743 45 1
743 47 1
743 64 1
743 70 1
743 94 1
743 98 1
743 113 1
743 125 3
743 153 7
743 157 1
743 186 1
743 216 1
743 218 3
743 254 2
743 284 1
743 306 2
743 335 2
743 512 1
743 537 1
743 556 1
743 574 1
743 666 1
743 707 1
743 769 1
743 839 1
743 861 2
743 903 2
743 1006 10
743 1165 1
744 1 15
744 74 1
744 173 1
744 232 3
744 247 1
744 254 1
744 264 3
744 272 2
744 275 1
744 285 1
744 296 3
744 301 1
744 322 1
744 402 1
744 415 4
744 475 1
744 504 1
744 508 1
744 633 1
744 662 3
744 671 1
744 699 1
744 770 1
744 820 1
744 875 1
744 876 1
744 968 1
744 1129 1
744 1135 1
744 1220 1
744 1221 2
745 5 3
745 10 1
745 15 2
745 21 2
745 39 2
745 40 1
745 44 1
745 52 1
745 90 3
745 160 2
745 214 1
745 222 1
745 295 1
745 314 1
745 334 1
745 365 1
745 488 1
745 546 1
745 551 1
745 582 1
745 666 1
745 676 3
745 702 1
745 787 1
745 850 2
745 862 1
745 903 1
745 910 2
745 1106 1
745 1195 1
746 15 1
746 83 2
746 167 9
746 181 1
746 236 1
746 239 1
746 279 1
746 284 2
746 299 1
746 306 2
746 311 2
746 325 1
746 364 5
746 383 1
746 546 3
746 613 1
746 676 1
746 685 1
746 706 1
746 944 1
746 1017 2
746 1098 1
746 1189 1
746 1194 1
747 5 1
747 29 2
747 64 1
747 66 1
747 74 1
747 149 1
747 158 1
747 178 1
747 200 1
747 229 1
747 234 1
747 278 1
747 305 1
747 325 1
747 363 1
747 376 1
747 384 5
747 398 1
747 415 1
747 433 1
747 447 2
747 454 2
747 562 1
747 576 1
747 652 1
747 705 2
747 725 1
747 726 1
747 876 1
747 1187 1
748 5 1
748 21 4
748 54 6
748 75 1
748 81 3
748 86 2
748 116 1
748 139 9
748 157 4
748 161 1
748 167 11
748 179 1
748 186 1
748 238 12
748 269 5
748 285 1
748 298 1
748 299 1
748 363 6
748 372 1
748 377 1
748 385 3
748 405 1
748 409 1
748 463 10
748 490 4
748 495 1
748 497 1
748 538 2
748 539 1
748 571 1
748 584 3
748 655 1
748 658 1
748 711 1
749 1 3
749 5 2
749 21 6
749 25 5
749 27 1
749 29 5
749 66 1
749 85 2
749 86 1
749 143 1
749 161 1
749 163 6
749 165 1
749 167 4
749 179 1
749 257 2
749 266 2
749 286 1
749 296 1
749 301 1
749 303 2
749 306 2
749 312 1
749 377 4
749 378 7
749 388 1
749 422 1
749 442 1
749 461 1
749 471 2
749 528 2
749 581 1
749 609 2
749 627 1
749 630 1
749 660 1
749 687 1
749 820 1
749 840 4
749 858 1
749 888 1
749 916 1
749 958 1
749 1017 1
749 1073 1
749 1084 3
749 1094 1
749 1102 1
749 1129 2
749 1210 1
749 1222 1
750 15 2
750 27 1
750 28 2
750 39 1
750 63 3
750 70 1
750 79 1
750 86 1
750 87 1
750 99 1
750 108 2
750 109 1
750 139 1
750 163 1
750 164 1
750 178 2
750 201 1
750 226 1
750 235 1
750 238 1
750 243 1
750 254 1
750 260 1
750 284 1
750 288 1
750 306 1
750 356 1
750 365 2
750 378 2
750 382 1
750 398 1
750 413 1
750 420 1
750 426 1
750 441 1
750 501 1
750 508 1
750 530 1
750 570 1
750 578 1
750 579 2
750 652 1
750 660 2
750 670 1
750 699 1
750 712 4
750 724 1
750 752 1
750 771 1
750 773 2
750 775 7
750 813 1
750 814 1
750 844 1
750 853 1
750 855 3
750 856 1
750 857 1
750 945 1
750 1017 4
750 1084 7
750 1101 2
750 1113 1
750 1137 1
750 1182 1
750 1193 1
750 1195 1
750 1202 1
750 1223 1
750 1224 3
751 110 1
751 117 3
751 153 4
751 183 1
751 260 2
751 269 1
751 307 1
751 319 1
751 390 3
751 442 2
751 558 1
751 589 1
751 675 1
751 711 2
751 721 1
751 729 1
751 743 1
752 5 1
752 25 1
752 27 2
752 75 1
752 82 1
752 84 1
752 86 1
752 87 1
752 110 1
752 117 5
752 183 1
752 186 1
752 188 1
752 229 1
752 231 1
752 232 1
752 273 1
752 302 1
752 320 1
752 340 1
752 410 1
752 512 2
752 558 1
752 589 1
752 641 1
752 721 1
752 791 1
753 25 1
753 117 4
753 153 1
753 178 1
753 183 1
753 235 1
753 259 1
753 277 1
753 301 1
753 307 1
753 319 1
753 387 1
753 442 3
753 461 1
753 466 1
753 589 1
753 721 1
754 11 1
754 75 1
754 91 1
754 104 1
754 171 3
754 203 1
754 257 1
754 286 1
754 378 6
754 437 1
754 439 1
754 512 1
754 524 1
754 932 1
754 1143 3
755 10 1
755 35 2
755 53 1
755 85 2
755 117 1
755 153 1
755 214 1
755 254 2
755 260 1
755 331 1
755 335 2
755 356 1
755 379 3
755 514 1
755 673 1
755 789 1
755 912 1
755 1126 1
755 1160 1
755 1213 1
756 5 1
756 8 2
756 21 2
756 45 2
756 64 1
756 75 3
756 78 1
756 80 3
756 84 2
756 107 1
756 167 2
756 254 2
756 278 4
756 321 6
756 345 2
756 375 1
756 411 1
756 595 1
757 34 1
757 192 1
757 245 3
757 256 1
757 278 3
757 283 1
757 332 1
757 363 1
757 382 1
757 395 1
757 499 1
757 503 1
757 700 1
757 714 2
757 757 1
758 50 1
758 80 1
758 144 1
758 200 1
758 229 1
758 232 1
758 279 1
758 388 1
758 458 1
758 645 1
758 686 1
758 1004 1
758 1037 2
758 1072 4
758 1225 12
759 21 6
759 62 7
759 70 1
759 75 1
759 86 3
759 157 2
759 163 1
759 167 4
759 234 1
759 259 1
759 309 1
759 338 2
759 360 4
759 364 2
759 426 1
759 573 1
759 705 1
759 744 1
759 800 4
759 941 1
759 1019 5
760 45 1
760 48 1
760 70 1
760 80 5
760 110 1
760 153 1
760 154 1
760 185 1
760 187 1
760 192 1
760 256 1
760 266 1
760 291 1
760 319 1
760 336 1
760 338 1
760 363 1
760 503 1
760 616 2
760 684 1
760 821 2
760 1078 4
761 10 2
761 75 1
761 80 1
761 109 1
761 163 1
761 226 1
761 227 1
761 266 1
761 267 1
761 321 1
761 323 1
761 422 1
761 427 1
761 442 1
761 466 2
761 499 1
761 892 1
762 44 1
762 64 1
762 75 6
762 164 1
762 171 3
762 204 1
762 415 6
762 441 3
762 480 2
762 526 1
762 796 3
762 849 1
762 1226 1
763 27 1
763 42 1
763 58 2
763 75 1
763 95 1
763 179 1
763 257 1
763 283 1
763 338 1
763 339 1
763 425 1
763 514 1
763 556 1
763 636 1
763 685 1
763 705 1
763 748 1
763 892 1
763 1001 2
763 1086 1
763 1103 1
763 1148 1
763 1154 1
764 1 5
764 65 1
764 91 1
764 100 2
764 178 1
764 180 1
764 203 1
764 266 1
764 364 1
764 372 1
764 378 1
764 381 1
764 388 3
764 439 2
764 494 3
764 503 2
764 673 3
764 681 2
764 685 2
764 811 2
764 1017 4
764 1163 2
765 21 1
765 22 1
765 27 1
765 44 1
765 62 2
765 122 1
765 146 2
765 160 1
765 187 3
765 236 1
765 259 1
765 318 2
765 356 1
765 405 1
765 413 1
765 422 1
765 442 1
765 506 1
765 514 1
765 556 1
765 568 1
765 685 2
765 784 1
765 954 2
765 1000 1
765 1047 2
765 1084 2
765 1111 5
765 1154 1
765 1160 1
765 1207 1
765 1227 1
766 54 4
766 77 1
766 119 1
766 192 1
766 269 4
766 342 1
766 345 1
766 363 10
766 372 1
766 374 2
766 376 6
766 402 1
766 571 1
766 584 3
766 1112 1
766 1198 1
767 15 2
767 59 3
767 77 2
767 149 1
767 183 3
767 187 1
767 230 3
767 232 1
767 240 1
767 278 1
767 301 1
767 302 2
767 319 1
767 395 1
767 417 1
767 434 1
767 443 1
767 454 1
767 466 1
767 505 1
767 527 7
767 594 1
767 661 2
767 736 1
767 798 4
767 863 1
767 876 1
767 1038 1
767 1066 4
767 1169 1
767 1202 1
768 21 4
768 42 1
768 179 3
768 243 1
768 266 2
768 286 2
768 298 1
768 304 1
768 310 2
768 339 1
768 356 2
768 514 1
768 523 1
768 548 2
768 669 1
768 671 1
768 685 3
768 705 1
768 753 1
768 761 1
768 892 1
768 989 1
768 1046 1
768 1084 3
768 1111 1
768 1186 1
768 1227 2
769 44 1
769 95 1
769 110 1
769 156 4
769 200 1
769 207 1
769 301 3
769 302 2
769 366 2
769 447 1
769 560 1
769 561 1
769 614 1
769 642 3
769 651 1
769 729 2
769 778 1
769 809 1
769 1228 1
769 1229 1
770 64 2
770 77 1
770 81 1
770 164 1
770 179 1
770 254 1
770 298 1
770 319 1
770 371 1
770 499 1
770 503 6
770 602 1
770 644 1
770 827 1
770 943 3
771 25 3
771 29 1
771 32 1
771 35 1
771 36 1
771 45 2
771 50 1
771 84 1
771 85 3
771 115 1
771 153 2
771 333 1
771 394 1
771 419 2
771 446 3
771 512 1
771 516 1
771 531 1
771 597 1
771 650 1
771 660 1
771 694 1
771 721 1
771 1048 3
772 14 1
772 42 4
772 50 1
772 61 1
772 102 3
772 116 1
772 153 2
772 164 1
772 178 1
772 179 1
772 187 2
772 202 1
772 220 1
772 349 1
772 359 2
772 375 1
772 512 1
772 587 1
772 616 1
772 673 1
772 775 1
772 814 1
772 1018 1
772 1091 1
772 1118 1
773 56 1
773 70 1
773 80 1
773 84 1
773 102 1
773 117 1
773 125 1
773 151 6
773 153 7
773 266 1
773 319 1
773 359 8
773 412 1
773 442 2
773 556 1
773 563 1
773 578 1
773 630 1
773 721 1
774 66 1
774 74 1
774 75 1
774 154 1
774 256 1
774 340 1
774 364 1
774 378 1
774 503 3
774 571 1
774 609 1
774 694 1
774 773 2
774 777 1
774 989 1
774 1017 1
775 5 2
775 9 2
775 29 1
775 35 1
775 70 1
775 78 2
775 90 1
775 117 2
775 146 3
775 183 1
775 186 2
775 261 1
775 338 2
775 397 1
775 650 1
775 652 1
775 685 2
775 768 5
775 779 1
775 798 1
775 983 1
775 1031 1
775 1049 2
775 1097 1
775 1191 2
775 1221 1
775 1230 1
775 1231 1
776 1 4
776 7 4
776 10 1
776 44 1
776 153 5
776 180 1
776 186 2
776 279 1
776 442 1
776 556 2
776 647 1
776 795 1
776 833 2
776 896 1
777 12 1
777 91 1
777 153 1
777 154 1
777 168 1
777 169 1
777 187 1
777 192 1
777 229 1
777 238 1
777 254 1
777 280 9
777 283 1
777 302 1
777 363 1
777 463 5
777 468 1
777 543 1
777 550 1
777 577 1
777 592 1
777 627 1
777 711 2
777 1115 1
778 31 1
778 32 1
778 116 1
778 139 1
778 374 2
778 376 2
778 415 1
778 581 1
778 772 2
778 814 1
778 1001 1
779 29 1
779 64 1
779 76 1
779 168 1
779 231 2
779 252 2
779 366 2
779 375 1
779 445 1
779 476 2
779 631 1
779 660 1
779 685 10
779 744 1
779 825 1
779 848 1
779 900 6
779 1007 2
779 1020 1
779 1075 1
779 1096 5
779 1111 3
779 1232 1
779 1233 1
780 75 2
780 139 6
780 499 3
780 503 2
780 535 1
780 539 1
780 992 1
780 1100 1
781 30 1
781 45 1
781 85 1
781 143 1
781 153 1
781 160 1
781 168 1
781 170 1
781 176 2
781 218 1
781 338 1
781 359 1
781 370 1
781 392 1
781 468 1
781 471 6
781 502 1
781 528 3
781 559 1
781 660 1
781 721 1
781 743 1
781 745 1
781 1053 2
782 13 1
782 95 2
782 111 1
782 112 2
782 120 4
782 146 1
782 214 3
782 229 1
782 244 8
782 266 1
782 376 1
782 484 1
782 548 2
782 588 1
782 606 4
782 645 2
782 705 1
782 744 1
782 753 1
782 833 2
782 864 4
782 897 1
782 949 1
782 1115 1
782 1137 1
782 1234 1
783 5 2
783 15 2
783 40 1
783 45 1
783 53 1
783 85 1
783 153 1
783 249 3
783 257 1
783 303 1
783 311 1
783 359 1
783 363 1
783 446 3
783 529 6
783 556 3
783 600 1
783 606 2
783 618 1
783 642 1
783 644 1
783 660 2
783 736 1
783 835 2
783 924 3
783 925 3
783 926 4
783 927 1
783 928 1
783 930 1
784 7 1
784 70 2
784 86 1
784 95 2
784 102 1
784 143 1
784 154 1
784 167 1
784 170 1
784 239 1
784 260 1
784 279 1
784 298 2
784 335 1
784 356 2
784 359 2
784 415 1
784 417 1
784 435 1
784 460 3
784 624 1
784 768 3
784 773 1
784 775 2
784 811 1
784 812 1
784 833 2
784 1019 1
784 1031 1
784 1049 8
784 1163 1
784 1230 1
784 1235 1
785 64 2
785 70 8
785 75 1
785 156 1
785 161 5
785 175 1
785 336 1
785 378 5
785 384 12
785 413 2
785 466 2
785 488 1
785 501 3
785 518 1
785 566 2
785 568 2
785 854 2
786 1 1
786 70 1
786 93 1
786 190 1
786 212 1
786 226 1
786 281 1
786 289 1
786 299 1
786 349 1
786 364 1
786 378 1
786 386 1
786 461 1
786 641 1
786 670 1
786 773 2
786 774 1
786 780 1
786 800 1
786 853 1
786 879 1
786 992 1
786 1017 1
786 1124 1
786 1149 1
786 1236 1
787 1 1
787 10 1
787 21 3
787 45 1
787 80 1
787 98 1
787 117 1
787 146 1
787 153 4
787 175 2
787 226 1
787 279 1
787 559 1
787 595 2
787 635 1
787 686 1
787 688 1
787 768 5
787 806 1
787 927 1
787 1031 1
787 1230 21
788 15 1
788 21 1
788 35 4
788 46 3
788 50 3
788 78 1
788 102 4
788 266 2
788 304 1
788 478 1
788 647 2
788 662 1
788 682 1
788 1237 1
789 132 1
789 179 1
789 192 2
789 511 1
789 581 1
789 1206 1
790 66 1
790 116 1
790 126 1
790 132 1
790 158 1
790 168 2
790 189 1
790 234 2
790 458 1
790 560 1
790 577 1
790 594 4
790 670 2
790 685 1
790 785 5
790 901 3
790 943 1
790 1136 1
790 1168 1
790 1202 1
791 1 2
791 64 1
791 80 1
791 192 1
791 254 1
791 260 1
791 338 1
791 364 1
791 503 1
791 562 2
791 713 1
791 762 1
791 805 2
791 1088 3
792 41 1
792 45 1
792 52 1
792 57 1
792 66 1
792 67 1
792 104 2
792 151 2
792 172 7
792 185 1
792 189 1
792 192 2
792 235 1
792 245 1
792 287 1
792 315 1
792 336 1
792 338 3
792 340 1
792 561 1
792 616 1
792 635 1
792 829 1
792 846 1
793 158 2
793 283 2
793 285 2
793 463 1
793 528 1
793 529 5
793 562 2
793 711 2
793 713 1
793 915 1
793 1019 1
794 1 2
794 21 1
794 50 7
794 51 1
794 95 2
794 101 1
794 102 2
794 115 1
794 178 1
794 181 1
794 195 7
794 218 1
794 257 1
794 288 1
794 442 1
794 473 1
794 477 1
794 486 2
794 771 1
795 1 7
795 9 1
795 10 1
795 25 1
795 29 2
795 39 2
795 45 3
795 56 1
795 57 1
795 66 1
795 73 1
795 75 2
795 80 1
795 109 1
795 126 1
795 127 1
795 157 4
795 161 1
795 163 1
795 167 1
795 178 1
795 179 1
795 185 1
795 189 1
795 192 4
795 195 2
795 226 1
795 232 1
795 251 1
795 254 12
795 255 1
795 278 2
795 285 1
795 291 1
795 306 3
795 311 6
795 313 2
795 325 1
795 331 1
795 341 2
795 363 2
795 366 1
795 371 1
795 387 7
795 393 1
795 397 3
795 445 1
795 454 1
795 505 1
795 518 1
795 581 1
795 582 1
795 594 2
795 630 1
795 634 2
795 635 1
795 679 1
795 697 1
795 736 2
795 752 1
795 785 2
795 802 1
795 822 1
795 843 1
795 851 1
795 862 1
795 893 1
795 903 5
795 1028 1
795 1157 4
796 1 1
796 62 1
796 64 1
796 72 1
796 132 2
796 192 2
796 257 1
796 303 1
796 343 2
796 364 1
796 527 1
796 697 1
796 711 1
796 797 1
796 876 1
796 946 1
796 962 1
796 1238 1
797 1 3
797 25 5
797 29 2
797 146 1
797 147 1
797 157 3
797 167 3
797 234 1
797 266 1
797 299 1
797 377 1
797 378 1
797 495 1
797 511 1
797 597 1
797 712 1
797 721 1
797 844 1
797 1017 4
797 1063 1
797 1084 1
798 5 1
798 15 1
798 55 1
798 77 1
798 90 1
798 160 1
798 187 1
798 189 1
798 245 1
798 285 2
798 386 1
798 394 1
798 458 2
798 595 1
798 621 1
798 628 1
798 676 2
798 759 1
798 1106 1
798 1239 1
799 1 4
799 29 1
799 39 2
799 90 1
799 119 1
799 134 2
799 167 9
799 175 2
799 299 1
799 306 5
799 311 1
799 364 5
799 388 1
799 442 3
799 489 1
799 562 1
799 656 1
799 685 10
799 721 1
799 777 1
799 966 1
799 971 1
799 1096 1
799 1240 1
800 1 6
800 15 1
800 29 1
800 40 1
800 65 3
800 67 1
800 68 1
800 82 2
800 109 1
800 139 1
800 159 1
800 192 2
800 199 1
800 206 1
800 238 1
800 388 1
800 499 2
800 503 2
800 546 1
800 612 1
800 710 2
800 1083 3
801 10 1
801 21 2
801 45 1
801 95 1
801 157 2
801 158 1
801 161 1
801 164 1
801 198 2
801 234 1
801 284 1
801 306 1
801 384 5
801 385 1
801 580 1
801 584 1
801 691 2
801 1241 1
802 1 3
802 3 4
802 7 1
802 11 1
802 13 1
802 21 4
802 29 1
802 41 1
802 84 8
802 100 1
802 157 1
802 167 2
802 204 2
802 220 1
802 238 1
802 245 2
802 285 1
802 290 1
802 306 5
802 334 1
802 341 1
802 344 1
802 347 1
802 356 1
802 364 1
802 548 1
802 568 1
802 573 2
802 606 1
802 613 1
802 649 1
802 705 1
802 724 1
802 858 1
802 994 2
802 1057 2
802 1131 1
802 1137 1
802 1214 2
802 1242 1
803 10 1
803 15 4
803 45 2
803 64 1
803 208 1
803 212 4
803 269 2
803 296 1
803 300 1
803 303 2
803 364 1
803 365 2
803 393 1
803 512 3
803 835 1
803 903 1
803 1143 1
803 1194 1
804 1 6
804 139 1
804 142 1
804 157 1
804 167 1
804 203 1
804 212 1
804 269 2
804 285 1
804 299 2
804 306 1
804 364 3
804 388 1
804 390 1
804 580 2
804 642 1
804 1134 1
804 1167 1
804 1243 1
805 5 1
805 21 1
805 64 1
805 70 1
805 75 1
805 92 1
805 94 1
805 157 3
805 161 1
805 167 4
805 214 1
805 254 1
805 274 1
805 306 1
805 375 1
805 388 1
805 442 1
805 469 1
805 484 3
805 543 1
805 715 3
805 812 1
805 841 1
805 985 3
806 14 1
806 42 2
806 45 1
806 47 2
806 75 2
806 82 1
806 100 1
806 193 1
806 218 1
806 220 1
806 225 1
806 310 1
806 368 1
806 393 1
806 422 1
806 475 1
806 517 1
806 527 1
806 692 1
806 1027 2
807 3 1
807 19 1
807 25 3
807 39 1
807 40 1
807 67 1
807 70 5
807 73 1
807 84 3
807 332 1
807 364 1
807 443 2
807 460 1
807 660 1
807 863 1
807 880 1
807 973 1
807 1019 1
807 1165 1
807 1235 4
808 38 2
808 45 1
808 80 2
808 114 1
808 139 1
808 204 1
808 237 1
808 269 1
808 311 1
808 313 1
808 347 1
808 363 2
808 383 1
808 407 3
808 535 1
808 580 2
808 584 1
808 649 1
808 670 1
808 800 1
808 896 1
808 966 1
808 1076 3
808 1120 1
809 1 1
809 9 1
809 10 1
809 22 1
809 27 1
809 29 2
809 45 1
809 63 1
809 100 1
809 122 2
809 175 1
809 183 1
809 202 1
809 226 5
809 284 1
809 298 1
809 363 1
809 415 1
809 425 1
809 498 1
809 499 2
809 512 1
809 602 1
809 669 3
809 685 1
809 705 2
809 710 1
809 712 1
809 857 1
809 885 1
809 954 1
809 1025 1
809 1137 1
809 1227 2
809 1232 6
809 1244 1
809 1245 2
809 1246 3
810 4 1
810 5 1
810 9 1
810 27 1
810 75 6
810 76 1
810 95 1
810 98 1
810 164 1
810 169 4
810 243 1
810 244 1
810 260 9
810 266 1
810 371 1
810 428 1
810 429 1
810 647 1
810 652 1
810 727 1
810 1088 1
810 1142 1
810 1247 1
811 1 2
811 9 1
811 25 6
811 29 1
811 41 1
811 60 1
811 64 1
811 65 1
811 75 1
811 77 2
811 84 2
811 110 1
811 135 1
811 140 1
811 143 1
811 178 1
811 200 1
811 214 1
811 216 1
811 229 1
811 266 1
811 285 7
811 302 1
811 332 5
811 336 1
811 340 1
811 413 1
811 471 1
811 527 1
811 528 1
811 534 1
811 660 1
811 673 1
811 876 1
811 940 1
811 1096 1
811 1248 1
811 1249 1
812 4 1
812 5 1
812 20 1
812 43 1
812 52 1
812 64 1
812 74 1
812 77 1
812 101 1
812 164 1
812 219 1
812 252 1
812 259 1
812 261 1
812 318 1
812 381 2
812 429 3
812 460 2
812 468 1
812 498 1
812 499 1
812 506 2
812 531 1
812 556 2
812 637 1
812 669 1
812 715 1
812 864 1
812 894 1
812 960 1
812 964 1
812 973 1
812 1019 1
812 1250 1
813 1 1
813 13 1
813 21 2
813 27 2
813 70 1
813 73 1
813 76 1
813 77 1
813 87 1
813 94 1
813 98 1
813 115 3
813 143 1
813 147 1
813 160 1
813 163 2
813 164 1
813 193 1
813 218 1
813 257 2
813 267 1
813 430 1
813 471 1
813 581 1
813 597 1
813 626 1
813 732 1
813 962 2
813 977 1
813 1011 6
813 1148 1
813 1251 1
814 21 4
814 25 6
814 32 2
814 90 1
814 301 5
814 442 1
814 501 1
814 504 1
814 511 1
814 515 1
814 584 1
814 589 1
814 597 1
814 660 1
814 712 1
814 721 1
814 727 1
814 775 1
814 805 1
814 855 1
814 876 2
814 888 1
814 1017 5
814 1083 1
814 1156 1
814 1203 2
815 9 2
815 28 1
815 45 1
815 46 1
815 52 3
815 59 1
815 72 1
815 99 1
815 110 2
815 141 2
815 149 1
815 160 1
815 169 3
815 189 1
815 224 1
815 257 1
815 267 1
815 302 1
815 339 1
815 359 1
815 363 1
815 381 3
815 393 1
815 412 1
815 413 1
815 428 1
815 429 1
815 462 1
815 489 1
815 574 1
815 575 1
815 595 1
815 660 1
815 668 1
815 671 1
815 705 1
815 844 1
815 887 1
815 1174 1
816 1 2
816 11 1
816 28 1
816 62 15
816 105 1
816 157 1
816 167 14
816 170 3
816 178 1
816 212 2
816 218 3
816 252 1
816 269 3
816 283 2
816 284 5
816 306 5
816 311 1
816 354 1
816 364 1
816 426 3
816 493 8
816 540 2
816 543 1
816 705 1
816 706 1
816 1096 1
817 34 4
817 45 1
817 81 1
817 86 1
817 95 1
817 127 1
817 153 3
817 179 3
817 257 2
817 280 7
817 298 2
817 301 1
817 306 1
817 337 1
817 386 1
817 489 3
817 512 1
817 527 2
817 585 1
817 718 1
817 731 4
818 45 1
818 49 1
818 50 4
818 75 2
818 80 1
818 87 1
818 95 1
818 110 1
818 117 2
818 126 1
818 146 1
818 153 2
818 183 1
818 264 2
818 267 2
818 319 1
818 359 1
818 412 1
818 441 1
818 442 1
818 454 1
818 471 1
818 473 1
818 530 1
818 589 1
818 595 1
818 660 1
818 721 1
818 1069 1
818 1104 1
819 21 1
819 34 1
819 95 2
819 153 1
819 161 1
819 167 6
819 170 1
819 257 5
819 320 6
819 349 1
819 363 1
819 385 2
819 401 8
819 477 1
819 484 3
819 494 1
819 498 3
819 506 1
819 527 3
819 554 1
819 556 1
819 590 1
819 626 1
819 658 2
819 680 1
819 692 7
819 721 1
819 921 3
819 1039 1
819 1091 1
819 1205 1
820 21 2
820 24 1
820 25 2
820 50 1
820 84 2
820 153 2
820 183 1
820 266 1
820 301 1
820 319 1
820 363 1
820 379 1
820 418 1
820 442 1
820 443 1
820 512 1
820 553 1
820 556 1
820 589 1
820 660 1
820 721 1
820 791 1
820 858 1
821 34 1
821 45 1
821 107 1
821 185 1
821 267 2
821 410 2
821 467 1
821 471 6
821 477 1
821 484 2
821 512 1
821 574 1
821 581 1
821 635 1
821 653 1
821 692 1
821 701 1
821 820 1
821 869 3
821 939 1
821 1013 1
821 1127 1
821 1131 1
821 1252 1
822 5 1
822 15 1
822 29 1
822 45 1
822 104 2
822 160 1
822 171 1
822 179 2
822 425 1
822 512 2
822 530 1
822 685 11
822 721 1
822 798 2
822 810 2
822 916 1
822 1007 2
822 1146 1
822 1190 1
822 1244 1
822 1253 1
823 34 1
823 95 1
823 119 1
823 138 1
823 153 1
823 164 1
823 187 1
823 220 2
823 252 1
823 257 1
823 267 1
823 339 5
823 410 3
823 415 3
823 530 1
823 559 2
823 653 14
823 814 1
823 820 2
823 984 1
823 1003 1
823 1010 1
823 1046 1
823 1093 2
823 1177 1
823 1220 1
824 45 1
824 60 1
824 112 1
824 117 2
824 153 1
824 167 2
824 215 1
824 281 1
824 298 6
824 385 2
824 409 1
824 442 1
824 493 2
824 898 2
824 991 2
825 144 1
825 151 1
825 167 1
825 245 1
825 283 1
825 284 1
825 336 2
825 377 1
825 385 1
825 407 1
825 410 3
825 442 1
825 699 2
825 934 1
825 1142 1
825 1146 1
825 1174 1
826 1 3
826 25 1
826 29 2
826 32 2
826 45 2
826 80 1
826 84 1
826 86 1
826 91 1
826 112 1
826 117 1
826 127 1
826 153 1
826 157 1
826 164 1
826 167 1
826 179 1
826 190 1
826 298 1
826 302 1
826 306 1
826 375 1
826 405 2
826 442 2
826 572 1
826 897 2
826 932 1
826 991 2
826 1100 1
826 1109 1
826 1219 1
827 45 1
827 53 1
827 57 1
827 66 1
827 70 1
827 109 1
827 115 2
827 157 1
827 169 1
827 179 3
827 277 1
827 332 1
827 377 4
827 418 1
827 442 1
827 685 7
827 721 1
827 916 1
827 1011 1
827 1083 1
828 1 3
828 8 1
828 35 1
828 94 1
828 119 1
828 138 1
828 176 1
828 186 1
828 257 1
828 260 1
828 283 3
828 337 1
828 363 1
828 431 1
828 512 1
828 530 1
828 576 1
828 597 1
828 660 1
828 721 1
828 764 1
829 13 2
829 94 1
829 95 3
829 170 1
829 178 1
829 187 1
829 303 1
829 319 1
829 377 5
829 412 1
829 415 1
829 433 2
829 442 5
829 446 1
829 489 11
829 512 2
829 556 7
829 574 1
829 726 1
829 837 1
829 1204 1
829 1229 2
830 1 1
830 8 1
830 14 1
830 15 1
830 34 1
830 50 1
830 56 1
830 153 3
830 170 1
830 266 1
830 301 1
830 375 1
830 409 5
830 477 4
830 483 2
830 489 2
830 524 5
830 567 1
830 685 2
830 747 1
830 828 8
830 836 3
830 878 2
830 1047 1
830 1118 1
830 1127 1
830 1177 5
831 8 2
831 27 2
831 50 1
831 60 1
831 86 2
831 115 2
831 116 1
831 117 1
831 122 1
831 125 1
831 150 2
831 153 2
831 169 1
831 178 1
831 410 1
831 442 1
831 446 1
831 471 1
831 512 1
831 609 1
831 660 2
831 721 1
831 954 1
831 962 1
831 1254 1
832 1 1
832 7 1
832 25 2
832 35 1
832 79 1
832 82 1
832 85 5
832 89 2
832 131 1
832 147 1
832 170 1
832 225 2
832 256 1
832 277 1
832 328 1
832 332 1
832 394 4
832 405 1
832 413 1
832 443 1
832 488 1
832 503 8
832 681 1
832 685 1
832 729 2
832 846 1
832 928 1
832 1053 2
832 1184 1
832 1254 1
832 1255 1
833 34 3
833 49 2
833 50 6
833 75 1
833 80 1
833 94 1
833 95 4
833 153 5
833 188 1
833 238 1
833 257 1
833 259 1
833 301 1
833 317 1
833 339 4
833 391 1
833 410 1
833 471 2
833 604 2
833 692 1
833 836 1
833 869 1
833 968 2
833 974 1
833 1118 2
833 1177 3
833 1199 1
834 15 1
834 35 3
834 81 1
834 105 1
834 109 1
834 192 1
834 303 1
834 340 1
834 371 3
834 384 1
834 386 1
834 418 1
834 421 1
834 445 2
834 499 2
834 503 2
834 527 2
834 581 1
834 630 3
834 670 2
834 843 1
835 77 1
835 121 1
835 231 2
835 238 1
835 266 1
835 302 1
835 307 1
835 378 1
835 437 2
835 503 2
835 531 1
835 612 1
835 661 2
835 972 1
836 14 1
836 50 2
836 80 1
836 88 1
836 115 1
836 119 3
836 153 1
836 164 2
836 169 1
836 170 1
836 187 1
836 252 3
836 257 2
836 302 3
836 319 1
836 375 1
836 397 1
836 471 1
836 484 2
836 489 2
836 498 1
836 506 1
836 662 2
836 672 1
836 701 1
836 869 2
836 880 1
836 1069 4
836 1177 1
836 1212 1
836 1256 1
837 1 1
837 3 1
837 62 1
837 75 4
837 86 1
837 254 1
837 269 3
837 308 1
837 381 1
837 461 1
837 589 1
837 871 1
837 879 3
837 1257 1
838 14 1
838 25 1
838 29 6
838 32 4
838 45 3
838 52 1
838 60 1
838 66 1
838 84 5
838 133 1
838 135 1
838 175 3
838 212 1
838 242 1
838 252 1
838 254 1
838 351 1
838 363 1
838 446 1
838 528 1
838 579 1
838 932 1
838 1063 1
838 1072 1
838 1175 1
839 5 1
839 70 1
839 112 1
839 117 1
839 120 1
839 150 1
839 151 1
839 171 2
839 179 1
839 188 1
839 210 1
839 233 1
839 235 1
839 306 1
839 332 1
839 381 2
839 395 2
839 427 1
839 458 3
839 512 1
839 561 1
839 576 1
839 620 3
839 625 1
839 736 1
839 943 1
839 1014 1
839 1110 1
840 15 2
840 28 2
840 66 7
840 80 2
840 245 4
840 285 1
840 305 1
840 354 1
840 584 6
840 821 3
840 1100 1
840 1176 1
841 45 1
841 56 1
841 75 2
841 77 1
841 95 1
841 110 1
841 198 1
841 267 1
841 269 3
841 512 1
841 548 1
841 556 1
841 581 1
841 590 1
841 645 1
841 1257 1
842 5 1
842 82 3
842 243 1
842 419 1
842 562 1
842 764 1
842 1084 1
842 1251 3
843 5 1
843 25 5
843 29 7
843 32 3
843 45 1
843 66 1
843 68 1
843 86 1
843 108 1
843 110 1
843 117 1
843 149 2
843 161 1
843 306 1
843 336 1
843 375 1
843 377 4
843 410 2
843 419 1
843 442 1
843 528 3
843 530 2
843 585 3
843 630 1
843 722 1
843 836 4
843 843 1
843 1009 1
843 1203 1
844 10 1
844 21 2
844 25 1
844 45 1
844 50 1
844 75 2
844 80 1
844 84 3
844 88 1
844 143 1
844 152 1
844 167 1
844 183 1
844 306 1
844 386 1
844 558 1
844 589 1
844 600 1
844 647 1
844 721 1
844 776 3
844 1073 1
844 1258 2
845 10 2
845 13 1
845 21 1
845 39 2
845 41 1
845 43 1
845 45 1
845 82 1
845 94 7
845 122 4
845 153 1
845 175 1
845 178 1
845 231 1
845 306 5
845 338 1
845 442 1
845 464 2
845 488 1
845 638 1
845 685 7
845 862 1
845 1075 1
845 1232 2
846 21 1
846 111 1
846 122 1
846 254 1
846 330 1
846 375 1
846 381 2
846 415 1
846 443 1
846 876 1
846 1184 1
846 1254 1
846 1259 1
846 1260 3
847 56 2
847 64 1
847 75 2
847 86 1
847 95 1
847 119 1
847 121 1
847 135 2
847 141 1
847 153 2
847 161 1
847 175 3
847 185 2
847 189 1
847 205 1
847 227 1
847 249 1
847 259 2
847 264 2
847 274 1
847 285 8
847 301 1
847 302 1
847 303 2
847 314 2
847 322 1
847 336 2
847 338 2
847 415 1
847 421 1
847 442 2
847 477 1
847 505 1
847 635 1
847 876 2
847 887 1
847 904 1
847 939 1
847 977 1
847 993 1
847 1127 2
848 35 1
848 70 1
848 122 1
848 143 3
848 146 4
848 153 4
848 170 1
848 178 1
848 298 1
848 379 2
848 413 2
848 515 1
848 597 1
848 682 3
848 839 1
848 1024 1
849 25 1
849 41 1
849 42 2
849 55 1
849 57 1
849 105 1
849 173 1
849 180 1
849 257 1
849 295 1
849 339 1
849 471 6
849 489 1
849 587 1
849 660 1
849 876 1
849 891 1
849 939 1
850 11 1
850 14 1
850 34 6
850 41 2
850 55 1
850 76 1
850 95 1
850 119 2
850 122 1
850 153 2
850 169 1
850 179 1
850 187 2
850 220 1
850 312 1
850 317 1
850 338 1
850 339 2
850 461 1
850 471 5
850 477 10
850 484 4
850 489 1
850 498 1
850 512 2
850 527 2
850 542 1
850 559 1
850 595 3
850 643 1
850 653 1
850 662 1
850 692 2
850 814 1
850 823 1
850 852 2
850 869 1
850 880 1
850 939 1
850 1003 1
850 1177 1
850 1238 1
850 1252 3
850 1261 2
851 59 1
851 192 1
851 212 1
851 259 1
851 273 1
851 346 3
851 357 1
851 370 4
851 415 1
851 457 1
852 25 1
852 31 1
852 64 2
852 77 1
852 169 1
852 170 1
852 179 1
852 317 1
852 343 1
852 427 1
852 481 1
852 502 1
852 525 2
852 602 1
852 843 5
852 871 1
852 961 1
852 1117 1
852 1124 1
853 1 1
853 44 1
853 47 1
853 104 1
853 168 1
853 171 2
853 187 2
853 209 1
853 210 1
853 310 1
853 409 2
853 420 1
853 457 1
854 26 1
854 41 4
854 80 1
854 95 3
854 102 1
854 183 1
854 187 2
854 189 2
854 193 7
854 211 1
854 227 2
854 228 3
854 410 1
854 429 3
854 442 1
854 471 3
854 472 3
854 483 1
854 512 1
854 574 1
854 653 1
854 660 4
854 661 3
854 743 3
855 9 3
855 21 1
855 25 1
855 35 1
855 49 1
855 72 3
855 115 1
855 169 2
855 258 2
855 261 1
855 274 2
855 325 1
855 428 1
855 429 1
855 503 4
855 512 1
855 589 4
855 652 1
855 862 1
855 876 2
855 900 2
855 1069 1
855 1144 1
855 1262 1
855 1263 1
855 1264 8
855 1265 9
856 21 1
856 75 1
856 77 2
856 153 1
856 206 1
856 334 2
856 372 1
856 387 1
856 499 1
856 503 1
856 667 2
856 1088 1
857 32 1
857 66 1
857 76 1
857 130 2
857 170 1
857 216 1
857 232 1
857 277 2
857 332 1
857 593 1
857 719 2
857 804 1
857 891 1
857 975 1
858 1 1
858 16 1
858 42 3
858 92 1
858 168 1
858 212 2
858 259 1
858 273 1
858 360 1
858 413 3
858 414 2
858 475 1
858 527 2
858 645 1
858 659 1
858 683 3
858 705 1
858 769 1
858 789 2
858 924 1
858 925 2
858 1051 1
858 1084 2
858 1096 4
858 1111 2
858 1113 1
858 1266 1
858 1267 1
859 5 5
859 13 1
859 33 1
859 147 1
859 257 1
859 285 1
859 289 1
859 460 1
859 477 1
859 556 8
859 592 1
859 595 3
859 599 1
859 600 1
859 602 1
859 647 1
859 685 1
859 790 1
859 819 2
859 908 1
859 924 1
859 929 4
859 1011 2
859 1046 1
859 1068 1
859 1119 1
859 1121 1
859 1225 5
859 1243 1
859 1268 1
859 1269 1
859 1270 1
860 34 3
860 41 2
860 58 5
860 105 1
860 119 1
860 171 1
860 187 1
860 223 1
860 249 1
860 252 2
860 273 1
860 275 1
860 302 5
860 332 1
860 339 3
860 375 1
860 392 2
860 429 1
860 483 3
860 484 4
860 489 2
860 506 1
860 512 2
860 530 1
860 585 1
860 661 1
860 736 1
860 814 4
860 888 1
860 1047 1
860 1100 3
860 1147 1
860 1172 1
860 1177 4
860 1271 1
861 15 1
861 43 2
861 51 1
861 65 1
861 70 1
861 105 1
861 170 3
861 187 3
861 212 1
861 257 1
861 294 2
861 310 1
861 381 2
861 410 1
861 442 1
861 471 1
861 511 2
861 517 1
861 554 1
861 567 1
861 594 1
861 618 1
861 725 1
861 1065 1
862 14 1
862 41 3
862 56 1
862 74 1
862 75 1
862 76 1
862 98 1
862 99 1
862 102 8
862 115 1
862 160 1
862 170 1
862 187 2
862 192 1
862 193 6
862 195 1
862 242 2
862 301 1
862 317 1
862 318 2
862 359 2
862 429 2
862 442 2
862 473 2
862 474 3
862 485 2
862 504 1
862 512 1
862 691 1
862 786 1
863 21 3
863 25 4
863 29 2
863 40 1
863 86 1
863 147 1
863 240 2
863 275 1
863 319 1
863 377 3
863 398 3
863 542 1
863 589 3
863 596 1
863 712 3
863 721 1
863 804 1
863 1017 6
863 1084 1
863 1091 1
863 1217 1
864 5 1
864 21 2
864 50 2
864 52 2
864 119 1
864 126 1
864 158 1
864 178 1
864 187 1
864 216 1
864 257 1
864 277 1
864 285 3
864 298 1
864 442 1
864 460 3
864 655 1
864 685 1
864 1011 4
864 1115 1
864 1119 3
864 1225 7
864 1272 5
864 1273 1
864 1274 2
865 52 1
865 90 2
865 134 1
865 175 1
865 179 1
865 187 1
865 300 1
865 311 2
865 389 1
865 501 1
865 660 1
865 685 9
865 710 1
865 864 1
865 875 1
865 876 1
865 900 5
865 983 1
865 1232 1
865 1233 2
865 1275 1
866 79 1
866 80 1
866 87 2
866 98 1
866 122 1
866 153 3
866 279 1
866 286 2
866 434 1
866 446 1
866 511 1
866 527 1
866 559 2
866 650 1
866 717 1
866 792 1
866 1116 1
866 1276 2
866 1277 1
867 10 2
867 66 2
867 318 2
867 412 1
867 471 1
867 484 3
867 489 2
867 527 1
867 642 3
867 653 3
867 662 5
867 692 1
867 780 1
867 786 1
867 960 1
867 1075 1
867 1228 1
868 158 1
868 167 2
868 175 3
868 187 1
868 217 2
868 223 1
868 274 2
868 301 3
868 312 1
868 375 1
868 393 1
868 446 2
868 484 2
868 556 3
868 674 1
868 853 4
868 939 2
868 984 1
869 27 1
869 76 1
869 82 1
869 87 1
869 95 1
869 100 1
869 171 2
869 209 5
869 210 5
869 244 1
869 294 1
869 314 1
869 318 1
869 366 1
869 418 1
869 460 1
869 489 2
869 559 2
869 583 1
869 642 1
869 786 1
869 1050 1
869 1118 1
869 1155 1
870 15 1
870 45 1
870 47 1
870 71 1
870 80 4
870 109 1
870 154 1
870 192 1
870 214 1
870 336 1
870 388 1
870 503 2
870 512 1
870 522 1
870 822 1
871 116 2
871 169 1
871 257 2
871 259 1
871 372 1
871 443 1
871 499 3
871 503 2
871 530 1
871 543 1
871 590 1
871 728 1
871 753 1
871 803 1
872 1 1
872 3 1
872 5 1
872 29 3
872 32 2
872 64 1
872 65 1
872 66 1
872 109 1
872 142 2
872 172 2
872 192 4
872 285 1
872 295 1
872 303 1
872 388 1
872 397 2
872 398 1
872 499 7
872 503 2
872 515 2
872 657 1
872 711 1
872 721 1
872 871 1
872 903 1
872 1180 1
873 13 1
873 74 2
873 75 2
873 117 1
873 191 1
873 232 1
873 338 1
873 372 1
873 489 1
873 553 8
873 654 2
873 770 1
873 833 3
873 1004 5
874 10 5
874 21 3
874 95 1
874 139 1
874 148 1
874 226 1
874 279 2
874 375 1
874 420 1
874 484 1
874 488 1
874 511 1
874 566 1
874 777 1
874 1023 1
874 1230 1
875 1 3
875 10 2
875 11 2
875 13 1
875 79 1
875 84 2
875 86 1
875 143 1
875 146 2
875 178 1
875 234 1
875 257 1
875 315 1
875 410 1
875 448 1
875 449 1
875 511 1
875 553 2
875 570 1
875 645 2
875 660 1
875 665 2
875 765 1
875 774 1
875 833 1
875 928 1
875 951 1
875 1043 1
875 1137 1
875 1278 4
875 1279 1
876 5 1
876 10 3
876 35 3
876 91 3
876 105 2
876 117 3
876 153 2
876 155 4
876 260 4
876 279 1
876 337 1
876 438 1
876 446 2
876 650 4
876 1126 1
877 41 2
877 56 1
877 99 1
877 116 1
877 175 3
877 178 1
877 187 1
877 192 1
877 193 4
877 232 1
877 394 1
877 429 3
877 455 1
877 456 1
877 472 2
877 474 2
877 478 2
877 483 1
877 485 1
877 595 1
877 603 2
877 678 1
877 806 1
877 1070 1
877 1134 1
877 1202 1
877 1276 1
878 1 1
878 45 1
878 95 2
878 115 1
878 133 1
878 153 4
878 202 1
878 223 1
878 238 1
878 257 1
878 319 1
878 332 1
878 351 1
878 375 1
878 410 1
878 484 2
878 489 1
878 498 1
878 506 1
878 559 1
878 662 2
878 672 2
878 701 1
878 836 2
878 869 1
878 875 1
878 956 1
878 974 1
878 1069 1
878 1177 2
878 1188 1
878 1212 1
878 1280 3
879 47 1
879 56 1
879 59 1
879 95 1
879 102 1
879 170 1
879 187 1
879 193 1
879 197 2
879 264 4
879 277 4
879 289 2
879 412 1
879 471 1
879 472 2
879 542 1
879 661 1
879 970 1
880 11 1
880 70 4
880 81 4
880 85 5
880 89 2
880 120 1
880 126 1
880 212 4
880 257 1
880 319 1
880 364 1
880 368 1
880 445 1
880 446 2
880 665 5
880 743 1
880 918 1
880 1243 2
880 1281 1
881 1 1
881 5 1
881 45 1
881 80 2
881 81 3
881 85 2
881 93 2
881 94 1
881 98 1
881 164 1
881 175 1
881 215 1
881 251 1
881 258 5
881 277 1
881 366 2
881 371 1
881 528 1
881 657 1
881 748 1
881 930 1
881 982 1
881 1016 1
882 34 1
882 168 1
882 170 1
882 231 1
882 264 1
882 296 1
882 316 1
882 330 3
882 465 1
882 594 3
882 613 2
882 660 5
882 721 1
882 1095 1
882 1159 1
882 1282 1
883 91 2
883 171 1
883 189 1
883 232 1
883 303 3
883 343 4
883 348 1
883 471 1
883 652 1
883 736 2
884 238 1
884 257 5
884 299 4
884 331 2
884 442 1
884 498 3
884 499 1
884 551 1
884 566 1
884 770 1
884 833 1
884 910 1
885 21 1
885 46 4
885 55 2
885 69 1
885 180 1
885 192 1
885 193 6
885 218 4
885 358 5
885 478 2
885 507 1
885 621 1
885 732 7
885 815 1
885 1132 6
886 21 3
886 35 2
886 79 1
886 91 3
886 98 1
886 107 1
886 117 1
886 146 4
886 155 1
886 260 1
886 326 1
886 379 2
886 514 1
886 589 1
886 606 1
886 631 1
886 682 1
886 789 2
886 817 1
886 912 1
886 1031 1
886 1050 1
886 1230 1
887 19 1
887 163 1
887 227 1
887 372 1
887 412 3
887 434 1
887 471 1
887 497 1
887 516 1
887 518 2
887 616 1
887 669 1
887 708 5
887 927 1
887 1115 1
887 1221 5
888 1 1
888 41 1
888 62 1
888 80 1
888 91 1
888 139 2
888 142 1
888 151 3
888 170 1
888 269 5
888 285 2
888 294 2
888 335 2
888 364 1
888 365 1
888 383 2
888 542 1
888 546 1
888 564 1
888 800 1
888 860 1
888 871 3
888 1000 1
888 1041 3
888 1088 1
889 1 2
889 15 1
889 42 1
889 74 1
889 102 1
889 196 1
889 221 1
889 285 2
889 315 1
889 414 1
889 471 3
889 472 6
889 474 2
889 478 7
889 507 1
889 731 1
889 970 2
890 1 1
890 10 1
890 75 1
890 82 1
890 203 1
890 254 3
890 284 1
890 364 2
890 605 1
890 702 1
890 989 1
890 1257 1
891 2 1
891 5 1
891 32 1
891 52 1
891 70 1
891 79 1
891 87 1
891 110 1
891 137 2
891 154 1
891 179 2
891 187 1
891 213 1
891 240 1
891 247 1
891 257 6
891 302 1
891 306 2
891 332 1
891 400 1
891 422 4
891 433 1
891 479 1
891 489 1
891 496 1
891 531 1
891 625 2
891 626 2
891 641 1
891 648 1
891 657 1
891 696 1
891 723 1
891 904 1
891 971 1
891 981 1
891 991 1
891 1066 1
891 1150 1
891 1168 1
891 1203 1
891 1283 1
892 1 1
892 2 1
892 21 3
892 115 3
892 143 2
892 146 1
892 153 3
892 260 1
892 463 1
892 473 2
892 488 1
892 653 1
892 743 1
892 846 2
892 864 1
892 983 1
892 1052 1
892 1072 1
892 1251 1
892 1254 1
892 1260 1
892 1284 1
892 1285 5
893 1 2
893 21 2
893 29 1
893 32 1
893 45 3
893 117 1
893 130 1
893 139 1
893 157 1
893 167 3
893 189 1
893 207 1
893 232 1
893 301 2
893 302 1
893 326 1
893 335 1
893 359 1
893 405 1
893 492 1
893 658 1
893 701 1
893 729 1
893 957 1
894 95 9
894 193 5
894 228 7
894 259 5
894 293 2
894 301 3
894 314 3
894 354 1
894 442 2
894 489 7
894 512 1
894 1229 1
895 21 1
895 70 1
895 101 4
895 161 1
895 183 1
895 212 1
895 218 1
895 221 1
895 222 1
895 225 2
895 1248 1
896 32 1
896 108 1
896 130 1
896 174 1
896 216 1
896 232 1
896 312 3
896 340 1
896 499 3
896 503 2
896 515 1
896 719 1
896 736 1
896 829 3
896 905 1
896 1063 1
896 1123 1
897 18 1
897 34 1
897 52 1
897 72 2
897 501 1
897 503 2
897 530 1
897 589 1
897 685 2
897 771 4
897 1084 1
897 1128 1
897 1286 1
897 1287 1
898 10 1
898 44 1
898 79 1
898 143 1
898 153 6
898 238 1
898 337 1
898 388 1
898 446 2
898 494 6
898 609 1
898 716 1
898 792 1
898 795 1
898 844 1
898 1122 1
899 10 2
899 85 1
899 100 1
899 122 1
899 143 1
899 153 1
899 154 2
899 155 1
899 205 1
899 277 2
899 279 1
899 359 2
899 446 5
899 511 1
899 566 1
899 608 1
899 622 2
899 682 1
899 795 2
899 855 1
899 1031 1
899 1277 1
900 3 2
900 39 1
900 62 1
900 82 1
900 153 1
900 157 1
900 217 1
900 254 1
900 269 5
900 298 1
900 308 2
900 336 1
900 381 2
900 499 1
900 589 1
900 871 2
900 879 3
901 9 3
901 35 1
901 50 1
901 53 1
901 70 2
901 81 3
901 85 1
901 110 1
901 153 5
901 175 1
901 249 1
901 258 1
901 414 1
901 428 1
901 429 1
901 446 1
901 456 1
901 618 2
901 924 1
901 925 1
901 1148 1
901 1165 1
901 1247 1
902 80 1
902 110 1
902 185 1
902 229 3
902 256 1
902 269 6
902 284 5
902 285 2
902 305 2
902 372 1
902 560 1
902 582 2
902 661 1
902 701 1
902 772 1
903 29 4
903 49 1
903 72 2
903 81 1
903 126 1
903 208 1
903 212 1
903 234 1
903 254 1
903 256 1
903 257 1
903 259 1
903 280 6
903 381 1
903 463 1
903 465 1
903 507 1
903 530 4
903 666 1
903 685 6
903 721 1
903 864 1
903 900 2
903 1107 1
903 1203 3
903 1263 1
904 35 1
904 38 1
904 45 1
904 226 2
904 229 1
904 243 3
904 375 1
904 591 1
904 606 1
904 681 1
904 694 1
904 712 1
904 730 1
904 983 1
904 1192 1
904 1203 5
904 1288 1
904 1289 1
905 1 1
905 21 1
905 46 1
905 65 1
905 197 3
905 218 1
905 267 1
905 295 1
905 318 2
905 338 5
905 445 1
905 460 2
905 503 1
905 637 2
905 686 1
905 858 1
905 954 1
905 1050 1
905 1155 1
905 1197 2
906 82 1
906 179 2
906 250 1
906 303 1
906 442 1
906 595 1
906 713 2
906 876 2
906 903 2
906 1011 1
906 1073 1
906 1139 1
906 1199 1
906 1290 1
907 10 1
907 11 1
907 50 1
907 143 5
907 369 1
907 488 1
907 527 2
907 528 1
907 596 5
907 654 2
907 792 1
907 924 4
907 928 6
907 1277 2
908 10 2
908 15 1
908 70 4
908 80 9
908 163 1
908 191 1
908 232 1
908 291 1
908 306 2
908 432 1
908 511 2
908 518 1
908 530 1
908 567 1
908 583 1
908 667 1
908 673 2
908 744 2
908 844 3
908 1001 1
909 95 1
909 132 2
909 178 1
909 187 2
909 189 1
909 266 1
909 442 1
909 462 1
909 527 1
909 562 1
909 594 1
909 648 1
909 661 2
909 713 1
909 1142 2
909 1199 2
910 5 1
910 10 1
910 29 1
910 35 1
910 79 1
910 87 2
910 98 2
910 110 1
910 117 2
910 143 2
910 146 4
910 260 1
910 266 2
910 279 1
910 303 1
910 359 1
910 432 1
910 446 2
910 660 2
910 673 3
910 763 2
910 766 2
910 768 1
910 894 1
910 1072 1
910 1126 1
910 1146 1
911 10 3
911 79 1
911 80 2
911 91 4
911 153 2
911 154 4
911 175 1
911 179 2
911 187 1
911 209 1
911 210 1
911 277 2
911 289 1
911 319 1
911 335 1
911 353 1
911 514 1
911 650 2
911 686 1
911 792 1
911 844 1
911 928 2
911 1016 1
911 1116 1
912 63 1
912 64 1
912 157 4
912 234 1
912 252 1
912 332 1
912 343 1
912 364 1
912 617 1
912 636 1
912 699 1
912 736 1
912 802 2
912 957 1
912 980 1
912 1189 2
913 7 1
913 10 3
913 29 1
913 35 1
913 80 2
913 98 1
913 117 2
913 143 1
913 146 2
913 153 3
913 154 1
913 164 1
913 208 1
913 260 2
913 279 1
913 446 4
913 530 1
913 606 1
913 613 1
913 645 1
913 650 2
913 660 1
913 685 2
913 768 1
913 775 1
913 1126 1
913 1283 2
914 13 1
914 21 2
914 64 1
914 188 4
914 203 1
914 254 1
914 333 1
914 338 2
914 482 1
914 589 1
914 627 1
914 704 4
914 840 1
914 1131 1
915 9 2
915 30 1
915 56 1
915 81 2
915 88 1
915 98 1
915 112 1
915 117 2
915 153 1
915 187 1
915 191 1
915 212 1
915 214 1
915 241 1
915 244 1
915 258 1
915 264 1
915 268 1
915 277 2
915 381 1
915 412 1
915 428 1
915 444 1
915 470 1
915 471 1
915 511 1
915 517 1
915 559 1
915 563 1
915 612 1
915 645 1
915 708 2
915 844 1
915 924 1
915 925 1
915 989 1
915 1053 1
915 1065 1
915 1231 1
915 1247 1
915 1255 1
916 1 2
916 3 1
916 70 1
916 109 1
916 128 3
916 139 1
916 157 1
916 167 5
916 199 2
916 267 1
916 269 3
916 283 3
916 285 3
916 362 1
916 364 1
916 997 1
917 5 3
917 70 1
917 214 1
917 218 1
917 238 1
917 311 2
917 356 4
917 422 1
917 458 1
917 460 1
917 506 1
917 556 2
917 705 1
917 753 1
917 1084 1
917 1111 1
917 1137 1
917 1160 1
917 1166 1
917 1291 1
918 21 2
918 126 1
918 175 3
918 205 1
918 257 1
918 672 3
918 696 1
918 790 1
918 799 5
918 816 1
918 1010 3
918 1117 5
918 1155 1
919 5 1
919 35 1
919 81 1
919 153 1
919 175 4
919 186 1
919 214 2
919 234 1
919 359 1
919 446 1
919 511 1
919 517 1
919 554 5
919 621 1
919 642 1
919 650 1
919 665 1
919 795 4
919 929 6
919 957 1
919 1090 1
920 29 1
920 50 2
920 59 1
920 70 1
920 74 1
920 80 2
920 90 2
920 122 2
920 134 1
920 150 2
920 153 2
920 175 1
920 180 1
920 183 1
920 245 1
920 461 1
920 475 2
920 505 1
920 509 1
920 546 1
920 550 2
920 595 1
920 685 6
920 773 1
920 1040 1
920 1094 1
920 1180 1
921 14 1
921 32 2
921 50 1
921 92 1
921 107 1
921 108 1
921 126 1
921 133 1
921 157 1
921 208 1
921 240 1
921 245 1
921 257 1
921 332 1
921 343 1
921 442 1
921 458 2
921 499 4
921 503 2
921 530 1
921 560 1
921 592 1
921 700 1
921 806 2
921 826 1
921 843 1
921 902 1
921 1143 2
921 1292 1
922 13 2
922 15 1
922 21 2
922 27 1
922 32 2
922 47 3
922 50 2
922 69 1
922 102 3
922 163 1
922 187 1
922 190 1
922 215 1
922 238 1
922 264 1
922 273 1
922 295 1
922 336 1
922 412 1
922 471 3
922 473 1
922 503 1
922 642 1
922 661 1
922 692 1
922 786 1
922 789 1
923 10 1
923 21 1
923 27 1
923 75 2
923 135 1
923 153 3
923 218 3
923 314 1
923 338 4
923 482 1
923 553 3
923 556 1
923 644 1
923 806 1
923 833 2
924 15 1
924 27 1
924 44 1
924 48 1
924 75 1
924 80 1
924 86 1
924 157 1
924 161 1
924 421 2
924 546 1
924 658 1
924 804 1
924 853 1
924 991 1
924 1029 1
925 76 1
925 77 1
925 101 1
925 139 2
925 157 2
925 167 3
925 206 1
925 256 1
925 284 1
925 299 1
925 309 1
925 415 8
925 556 1
925 705 1
925 800 2
925 822 1
925 975 1
926 1 2
926 10 1
926 19 1
926 27 1
926 42 1
926 116 1
926 132 6
926 167 1
926 179 2
926 181 1
926 211 1
926 212 1
926 216 1
926 220 2
926 221 1
926 259 1
926 264 2
926 298 3
926 300 1
926 319 1
926 358 1
926 412 1
926 451 1
926 465 1
926 473 2
926 506 4
926 515 1
926 527 1
926 528 1
926 674 1
926 711 1
926 716 1
926 731 1
926 809 1
926 1118 1
926 1129 1
927 50 1
927 95 6
927 102 2
927 161 4
927 170 3
927 264 1
927 292 2
927 339 1
927 401 1
927 477 1
927 527 3
927 614 3
927 632 2
927 661 3
927 692 2
927 984 4
927 1069 6
927 1256 1
927 1293 1
928 1 1
928 50 3
928 78 1
928 80 1
928 81 2
928 85 2
928 124 2
928 129 1
928 150 1
928 168 1
928 175 1
928 254 1
928 315 1
928 320 1
928 443 1
928 484 1
928 595 2
928 612 4
928 627 1
928 673 1
928 697 1
928 708 2
928 791 1
928 930 1
928 1072 1
928 1281 1
929 1 1
929 3 1
929 21 1
929 39 3
929 62 2
929 70 4
929 75 3
929 76 1
929 143 1
929 153 1
929 167 1
929 186 1
929 269 3
929 285 1
929 299 1
929 308 2
929 364 2
929 381 1
929 1226 1
930 45 1
930 75 1
930 139 1
930 157 2
930 167 3
930 254 1
930 255 1
930 256 1
930 257 1
930 283 1
930 299 2
930 385 1
930 388 1
930 426 1
930 427 3
930 516 1
930 566 1
930 576 3
930 584 3
930 614 1
930 671 1
931 10 4
931 44 1
931 187 1
931 318 2
931 366 1
931 460 1
931 489 9
931 527 2
931 587 1
931 642 5
931 653 4
931 662 4
931 780 2
931 786 2
931 787 1
931 806 1
931 960 1
931 1050 1
931 1228 1
932 76 1
932 153 10
932 185 1
932 188 1
932 205 4
932 212 1
932 215 1
932 257 5
932 259 4
932 273 1
932 274 1
932 277 1
932 314 2
932 320 1
932 336 1
932 458 1
932 473 1
932 477 1
932 484 1
932 566 1
932 576 1
932 638 1
932 640 1
932 699 1
932 745 1
932 869 1
932 1046 1
932 1109 1
933 35 3
933 80 1
933 92 1
933 117 1
933 122 1
933 143 3
933 146 3
933 168 1
933 206 1
933 260 1
933 277 5
933 283 2
933 286 2
933 333 2
933 418 1
933 497 1
933 514 1
933 557 1
933 768 1
933 1000 3
934 1 1
934 66 1
934 70 2
934 80 6
934 83 1
934 109 1
934 172 1
934 175 1
934 213 1
934 216 1
934 251 1
934 259 2
934 322 2
934 326 1
934 332 4
934 349 1
934 442 1
934 464 1
934 471 1
934 578 1
934 581 1
934 634 1
934 635 1
934 699 1
934 719 1
934 837 1
934 919 1
934 978 1
934 1040 2
935 5 3
935 11 1
935 44 1
935 81 2
935 85 3
935 87 3
935 279 1
935 294 1
935 319 4
935 446 1
935 511 7
935 528 1
935 612 4
935 645 1
935 649 3
936 5 6
936 23 2
936 33 1
936 215 1
936 248 1
936 257 1
936 272 1
936 279 1
936 285 2
936 298 1
936 303 1
936 375 1
936 379 1
936 382 2
936 383 1
936 460 1
936 477 3
936 599 1
936 606 5
936 607 2
936 655 1
936 733 1
936 819 4
936 908 1
936 924 1
936 947 1
936 953 1
936 1007 3
936 1011 2
936 1036 1
936 1046 1
936 1090 1
936 1119 1
936 1121 1
936 1225 8
936 1232 2
936 1243 1
936 1270 1
936 1272 3
936 1294 1
937 35 4
937 53 1
937 109 1
937 187 1
937 229 1
937 252 2
937 331 1
937 371 5
937 393 1
937 501 4
937 503 1
937 562 2
937 635 2
937 673 2
937 739 3
938 3 2
938 40 1
938 45 1
938 129 1
938 159 1
938 172 1
938 177 1
938 192 1
938 217 1
938 269 6
938 285 1
938 310 1
938 313 8
938 315 1
938 335 1
938 382 1
938 383 1
938 393 1
938 405 1
938 407 4
938 580 4
938 835 1
938 896 3
938 935 2
939 1 1
939 14 1
939 21 1
939 25 2
939 42 2
939 46 1
939 95 2
939 126 1
939 153 4
939 214 1
939 218 3
939 318 1
939 334 1
939 388 1
939 410 1
939 418 1
939 572 4
939 647 1
939 786 1
939 870 1
939 968 2
939 969 1
939 998 1
940 10 1
940 53 1
940 75 1
940 101 1
940 138 1
940 157 1
940 167 1
940 177 2
940 193 1
940 260 1
940 277 1
940 378 1
940 455 2
940 456 2
940 471 1
940 484 2
940 589 2
940 624 1
940 658 1
940 767 4
940 774 1
940 775 1
940 853 1
940 913 1
940 1032 1
940 1085 1
940 1163 1
941 47 1
941 50 4
941 115 4
941 163 2
941 193 1
941 218 4
941 412 4
941 450 1
941 471 1
941 484 1
941 556 6
941 642 1
941 770 1
941 786 2
942 1 3
942 3 3
942 20 1
942 50 1
942 62 2
942 167 1
942 245 2
942 284 2
942 347 2
942 365 3
942 386 1
942 389 1
942 499 2
942 520 1
942 812 1
943 141 1
943 163 1
943 259 2
943 329 2
943 383 1
943 530 1
943 559 3
943 613 1
943 646 2
943 876 1
944 18 1
944 32 1
944 50 1
944 90 2
944 115 2
944 212 1
944 213 1
944 215 1
944 260 1
944 446 1
944 460 2
944 505 1
944 685 1
944 1007 1
944 1008 1
944 1036 1
944 1264 2
944 1295 2
945 139 1
945 170 1
945 192 1
945 193 1
945 240 2
945 264 1
945 266 2
945 322 1
945 336 1
945 435 3
945 471 3
945 504 3
945 560 1
945 616 1
945 662 1
945 1100 1
945 1152 1
946 27 2
946 34 2
946 95 2
946 170 3
946 171 1
946 178 1
946 185 1
946 190 1
946 216 1
946 234 1
946 300 1
946 375 1
946 456 3
946 488 1
946 489 1
946 532 1
946 560 1
946 653 3
946 692 12
946 701 1
946 783 1
946 814 15
946 880 1
946 888 1
946 906 1
946 921 3
946 962 1
946 974 2
946 984 1
946 1097 2
946 1127 1
946 1238 2
946 1256 1
946 1296 2
947 21 1
947 27 1
947 28 2
947 47 1
947 56 1
947 73 1
947 98 2
947 99 5
947 141 1
947 153 1
947 170 1
947 196 1
947 205 1
947 215 1
947 229 1
947 264 4
947 326 1
947 375 1
947 384 2
947 399 1
947 414 2
947 419 2
947 442 1
947 625 1
947 647 1
947 1282 1
948 29 1
948 41 2
948 70 1
948 81 2
948 116 1
948 143 1
948 153 1
948 160 1
948 168 2
948 169 1
948 187 3
948 256 1
948 259 1
948 312 1
948 410 1
948 465 1
948 518 1
948 579 1
948 594 4
948 635 1
948 649 1
948 670 1
948 679 1
948 702 1
948 733 1
948 981 1
948 1020 1
948 1030 1
948 1031 2
948 1191 1
949 49 1
949 143 7
949 153 1
949 252 1
949 274 1
949 285 1
949 312 1
949 323 1
949 412 2
949 433 1
949 446 2
949 514 1
949 544 1
949 650 1
949 697 1
949 743 1
949 804 1
949 1297 2
950 1 6
950 3 1
950 5 1
950 13 2
950 34 2
950 39 1
950 95 8
950 128 1
950 141 1
950 299 1
950 331 1
950 476 5
950 498 6
950 530 1
950 771 5
950 814 1
950 1118 1
950 1177 2
950 1243 3
950 1271 1
951 16 1
951 21 3
951 25 7
951 27 1
951 35 1
951 94 2
951 153 1
951 178 1
951 379 2
951 390 1
951 463 1
951 488 1
951 606 1
951 682 1
951 709 1
951 729 1
951 830 1
951 855 3
951 971 1
951 975 1
951 1088 1
952 5 1
952 15 1
952 65 1
952 77 1
952 139 1
952 183 3
952 189 1
952 190 1
952 209 1
952 234 1
952 296 3
952 314 1
952 335 1
952 336 1
952 340 1
952 366 2
952 433 4
952 473 1
952 481 1
952 514 1
952 567 1
952 595 2
952 697 1
952 797 1
952 798 2
952 806 1
952 807 1
952 808 1
952 960 1
952 1022 1
953 15 1
953 34 2
953 91 1
953 105 1
953 132 1
953 234 1
953 266 1
953 395 1
953 442 1
953 458 2
953 628 1
953 660 1
953 687 1
953 706 1
953 724 1
953 827 1
953 873 1
953 895 1
953 901 1
953 914 1
953 915 1
953 943 1
953 1298 1
954 5 1
954 21 2
954 45 1
954 46 4
954 47 2
954 48 1
954 75 2
954 76 1
954 92 1
954 94 2
954 160 3
954 163 1
954 222 1
954 259 5
954 281 1
954 314 2
954 335 1
954 383 1
954 426 1
954 508 1
954 602 1
954 916 1
955 47 1
955 53 1
955 63 1
955 104 1
955 111 1
955 153 1
955 178 1
955 312 1
955 341 1
955 345 1
955 363 1
955 365 1
955 483 2
955 503 1
955 669 2
955 719 1
955 964 1
955 982 1
956 15 7
956 114 1
956 234 1
956 238 1
956 499 1
956 503 1
956 630 2
957 27 1
957 41 4
957 42 4
957 46 1
957 47 3
957 50 1
957 74 1
957 218 4
957 221 1
957 231 1
957 471 1
957 478 2
957 595 2
957 654 1
957 731 1
957 732 6
957 962 5
958 27 1
958 50 2
958 56 1
958 116 1
958 120 1
958 151 1
958 170 1
958 171 2
958 175 5
958 210 1
958 216 3
958 232 1
958 250 2
958 256 1
958 274 1
958 412 5
958 546 1
958 595 1
958 686 1
958 692 11
958 730 1
958 753 1
958 793 1
958 797 2
958 804 1
958 821 1
958 883 1
958 908 2
958 1174 1
958 1276 1
959 186 1
959 459 2
959 727 1
959 944 2
960 1 1
960 53 1
960 105 1
960 109 2
960 135 3
960 171 1
960 185 1
960 192 2
960 261 1
960 331 1
960 343 2
960 364 1
960 397 1
960 457 1
960 499 3
960 503 1
960 633 1
960 736 1
960 863 1
960 891 1
960 1020 1
960 1064 1
961 77 1
961 110 1
961 181 1
961 192 3
961 199 3
961 220 1
961 247 1
961 266 1
961 392 1
961 506 2
961 527 3
961 578 1
961 580 1
961 595 1
961 661 1
961 781 1
961 962 1
961 984 3
961 1002 1
961 1087 1
961 1118 1
962 1 1
962 53 1
962 79 1
962 81 1
962 98 1
962 117 1
962 146 4
962 153 1
962 256 1
962 260 2
962 277 1
962 303 1
962 336 1
962 396 1
962 446 2
962 544 1
962 548 1
962 593 1
962 645 1
962 650 2
962 686 1
962 706 2
962 724 3
962 753 1
962 768 1
962 1125 3
962 1191 2
962 1209 1
963 1 1
963 21 2
963 35 1
963 92 1
963 122 3
963 178 2
963 191 1
963 215 3
963 226 1
963 252 1
963 375 1
963 628 1
963 685 1
963 721 1
963 857 4
963 916 1
963 954 1
963 1232 5
963 1246 1
963 1272 2
964 15 2
964 39 1
964 75 2
964 158 1
964 170 1
964 202 2
964 212 1
964 279 2
964 283 1
964 464 1
964 465 1
964 499 4
964 514 1
964 612 1
964 898 3
964 1245 1
965 1 1
965 3 1
965 25 1
965 29 1
965 45 3
965 50 2
965 52 1
965 60 1
965 70 2
965 75 1
965 90 1
965 103 1
965 117 1
965 124 1
965 150 3
965 153 4
965 169 1
965 175 1
965 252 1
965 275 1
965 287 1
965 311 1
965 367 3
965 382 1
965 388 1
965 471 1
965 508 1
965 581 1
965 660 1
965 671 1
965 685 1
965 797 1
965 947 1
965 1011 1
965 1140 1
965 1175 1
966 49 2
966 86 1
966 94 1
966 143 2
966 153 9
966 232 1
966 254 1
966 274 1
966 331 1
966 334 1
966 412 2
966 442 1
966 532 1
966 544 1
966 613 1
966 614 1
966 618 6
966 660 1
966 673 1
966 834 1
966 944 1
966 1265 4
967 24 1
967 35 1
967 143 2
967 150 4
967 153 3
967 163 1
967 186 1
967 286 1
967 356 1
967 381 1
967 415 1
967 418 1
967 624 3
967 682 3
967 697 1
967 780 1
967 811 1
967 954 1
967 1169 1
968 1 3
968 5 1
968 55 1
968 64 1
968 74 1
968 75 3
968 76 1
968 100 1
968 157 2
968 167 7
968 177 1
968 187 1
968 193 1
968 206 2
968 299 2
968 318 1
968 338 1
968 360 1
968 365 1
968 410 1
968 432 1
968 508 1
968 569 1
968 834 1
968 843 1
968 944 1
968 1014 1
968 1056 2
968 1136 1
968 1164 1
969 5 2
969 6 1
969 9 3
969 29 4
969 70 1
969 80 1
969 110 1
969 117 1
969 119 1
969 149 2
969 169 1
969 215 1
969 238 1
969 263 1
969 345 1
969 422 1
969 469 1
969 489 1
969 515 1
969 517 1
969 570 1
969 581 2
969 594 3
969 647 1
969 741 1
969 768 1
969 770 3
969 774 2
969 911 2
969 983 1
969 1031 6
969 1136 1
969 1191 4
970 55 1
970 62 1
970 64 1
970 88 1
970 130 1
970 156 1
970 157 1
970 158 1
970 167 1
970 218 1
970 245 1
970 257 1
970 302 1
970 306 1
970 442 1
970 446 1
970 455 2
970 458 2
970 471 2
970 484 3
970 574 1
970 580 1
970 590 1
970 634 1
970 635 1
970 660 1
970 962 1
970 1085 1
971 1 2
971 14 1
971 25 2
971 34 4
971 45 1
971 95 1
971 117 1
971 119 1
971 153 4
971 178 1
971 187 1
971 188 1
971 216 1
971 231 1
971 274 1
971 366 2
971 375 1
971 379 4
971 410 1
971 442 1
971 477 1
971 692 3
971 747 2
971 783 1
971 1009 1
971 1177 1
971 1237 4
972 139 6
972 157 2
972 167 3
972 238 2
972 298 2
972 313 3
972 355 1
972 405 1
972 422 2
972 450 2
972 463 2
972 490 3
972 546 2
972 588 1
972 658 2
972 821 9
972 830 2
972 888 1
972 1078 3
973 109 1
973 110 1
973 151 1
973 163 1
973 175 1
973 185 1
973 187 1
973 289 1
973 422 1
973 514 1
973 515 3
973 593 1
973 670 1
973 675 3
973 821 1
973 852 1
973 902 2
974 232 1
974 332 1
974 378 1
974 395 1
974 423 2
974 513 2
974 634 1
974 697 1
974 785 1
974 797 3
974 821 1
974 826 1
974 914 1
974 1091 1
974 1095 1
974 1142 1
974 1164 1
975 5 5
975 27 1
975 102 1
975 117 1
975 142 1
975 156 1
975 454 1
975 462 1
975 635 2
975 795 1
975 824 1
975 854 1
975 1110 1
975 1191 1
975 1221 1
976 7 1
976 11 2
976 50 1
976 53 1
976 81 2
976 85 2
976 120 1
976 151 1
976 212 1
976 240 2
976 249 1
976 257 1
976 323 2
976 359 1
976 410 1
976 512 1
976 612 1
976 792 1
976 924 1
976 925 1
976 987 1
976 1213 1
976 1249 1
976 1277 2
976 1281 2
977 66 1
977 171 1
977 216 1
977 272 1
977 423 2
977 458 2
977 460 1
977 513 2
977 594 2
977 821 1
977 826 2
977 827 2
977 893 1
977 919 2
977 1060 1
977 1136 1
977 1299 1
978 1 1
978 32 1
978 35 1
978 49 1
978 50 1
978 70 2
978 75 2
978 85 2
978 89 2
978 135 1
978 142 1
978 147 1
978 158 1
978 192 1
978 256 2
978 379 1
978 391 1
978 468 2
978 498 5
978 499 1
978 503 2
978 644 1
978 685 1
978 686 1
978 814 1
978 954 1
978 1028 1
978 1048 1
978 1100 1
978 1124 1
978 1159 2
979 5 1
979 29 1
979 39 6
979 41 1
979 52 1
979 115 1
979 128 1
979 167 2
979 175 1
979 252 1
979 299 1
979 306 1
979 364 4
979 389 1
979 442 1
979 475 1
979 562 2
979 660 1
979 685 13
979 848 1
979 862 1
979 1007 1
979 1062 1
979 1111 1
979 1182 1
979 1253 1
979 1293 1
979 1298 1
979 1300 1
980 1 1
980 45 2
980 80 6
980 109 2
980 168 3
980 185 2
980 192 3
980 216 1
980 229 1
980 254 1
980 269 1
980 285 2
980 300 1
980 311 5
980 353 1
980 364 2
980 397 2
980 543 1
980 558 1
980 636 1
980 660 2
980 876 2
980 903 1
980 1143 1
981 1 3
981 5 1
981 49 1
981 53 1
981 80 1
981 87 1
981 115 3
981 124 1
981 131 1
981 150 2
981 192 1
981 259 1
981 277 1
981 289 1
981 389 2
981 448 1
981 606 1
981 645 3
981 685 1
981 780 1
981 911 1
981 962 1
981 1068 2
981 1076 4
981 1125 2
981 1214 2
982 21 4
982 28 1
982 51 1
982 56 2
982 75 1
982 95 5
982 99 2
982 103 1
982 153 2
982 167 1
982 196 1
982 288 1
982 298 1
982 302 1
982 318 1
982 360 1
982 414 2
982 417 1
982 419 2
982 451 1
982 478 3
982 480 1
982 489 1
982 512 1
982 692 1
982 709 1
982 804 1
982 875 1
982 1029 1
982 1280 1
982 1301 1
983 115 1
983 150 1
983 153 2
983 158 1
983 273 1
983 286 2
983 372 1
983 419 11
983 459 2
983 468 1
983 558 1
983 579 1
983 673 1
983 981 1
983 1084 4
983 1124 1
983 1251 1
983 1302 1
984 40 1
984 52 1
984 72 1
984 90 2
984 167 1
984 187 1
984 256 1
984 283 1
984 364 4
984 378 1
984 625 1
984 890 1
984 966 5
984 967 1
984 1007 12
984 1084 12
985 37 1
985 85 1
985 119 1
985 153 1
985 175 1
985 273 5
985 288 1
985 303 1
985 488 4
985 503 2
985 511 5
985 572 2
985 597 1
985 660 1
985 669 1
985 681 1
985 685 1
985 727 1
985 765 3
985 1226 1
985 1272 1
986 74 1
986 109 1
986 118 1
986 126 6
986 178 1
986 189 6
986 252 1
986 259 2
986 286 2
986 370 1
986 419 3
986 612 2
986 733 1
986 842 1
986 866 1
986 1296 1
986 1303 1
987 1 1
987 14 1
987 64 1
987 132 3
987 168 2
987 175 1
987 241 3
987 245 1
987 285 3
987 342 1
987 408 1
987 546 2
987 653 1
987 804 1
987 834 1
987 843 2
987 902 1
987 1038 1
988 10 1
988 13 1
988 21 4
988 27 4
988 44 1
988 49 1
988 86 1
988 147 1
988 153 4
988 224 2
988 356 1
988 460 3
988 505 2
988 647 2
988 672 1
988 857 1
988 1232 1
989 25 4
989 27 2
989 35 4
989 40 1
989 79 2
989 87 1
989 89 2
989 332 3
989 356 3
989 443 1
989 559 1
989 597 2
989 729 1
989 789 1
989 958 1
989 1048 1
989 1090 3
989 1304 2
989 1305 2
990 7 2
990 11 1
990 22 1
990 35 1
990 79 1
990 85 2
990 89 2
990 146 8
990 260 1
990 279 2
990 413 2
990 494 1
990 553 1
990 556 2
990 660 1
990 729 3
990 833 5
990 1067 2
990 1116 1
990 1213 2
990 1249 1
991 7 1
991 25 1
991 30 1
991 35 1
991 84 1
991 85 1
991 98 1
991 126 1
991 143 1
991 146 1
991 170 1
991 178 1
991 302 3
991 335 2
991 375 1
991 393 1
991 446 1
991 498 1
991 503 1
991 574 1
991 618 1
991 647 1
991 673 1
991 792 2
991 794 2
991 1089 1
991 1090 3
991 1213 1
991 1255 1
992 107 1
992 253 1
992 285 1
992 302 1
992 346 1
992 465 1
992 527 1
992 537 1
992 555 1
992 932 2
992 946 1
992 1014 1
992 1136 1
992 1165 1
992 1188 1
993 1 1
993 3 1
993 21 2
993 39 1
993 62 1
993 65 1
993 86 1
993 204 2
993 217 1
993 257 1
993 269 4
993 308 1
993 381 1
993 589 1
993 716 1
993 879 2
993 1257 1
994 45 1
994 109 2
994 119 1
994 121 1
994 139 1
994 157 3
994 187 1
994 192 1
994 216 1
994 254 1
994 285 1
994 330 1
994 345 2
994 388 1
994 397 1
994 405 4
994 410 1
994 418 1
994 491 2
994 602 1
994 635 2
994 655 1
994 843 1
994 1030 1
994 1059 6
995 117 1
995 127 1
995 132 2
995 133 1
995 212 1
995 252 2
995 259 1
995 371 1
995 458 5
995 493 1
995 527 2
995 576 1
995 592 1
995 593 1
995 602 2
995 612 1
995 646 1
995 692 3
995 802 1
995 883 1
995 943 1
995 946 4
995 1016 1
995 1031 1
995 1066 2
995 1068 1
995 1171 1
996 21 1
996 25 2
996 64 1
996 75 1
996 85 1
996 95 2
996 98 1
996 99 4
996 102 1
996 170 1
996 257 1
996 375 1
996 451 1
996 474 1
996 489 1
996 528 3
996 597 1
996 669 1
996 854 1
996 876 1
996 928 1
996 1016 1
996 1305 1
997 70 1
997 80 1
997 87 2
997 92 1
997 141 2
997 150 1
997 168 1
997 175 1
997 187 2
997 224 1
997 322 1
997 329 1
997 379 1
997 464 1
997 542 1
997 559 3
997 651 1
997 652 1
997 1290 1
998 1 1
998 4 1
998 19 1
998 21 2
998 24 1
998 27 1
998 84 1
998 86 2
998 131 1
998 143 1
998 153 2
998 217 1
998 254 3
998 506 1
998 671 1
998 776 1
998 858 1
998 992 1
998 1155 5
998 1197 1
999 28 3
999 32 1
999 76 1
999 83 1
999 151 2
999 169 2
999 183 1
999 185 1
999 205 1
999 215 1
999 259 1
999 264 1
999 273 1
999 336 2
999 347 1
999 409 1
999 510 1
999 560 1
999 626 1
999 633 1
999 744 1
999 822 1
999 886 1
999 1042 1
999 1073 1
999 1187 1
1000 48 1
1000 82 7
1000 112 1
1000 117 6
1000 153 2
1000 157 1
1000 179 2
1000 232 1
1000 257 3
1000 274 1
1000 275 1
1000 332 1
1000 385 3
1000 415 1
1000 490 5
1000 658 1
1000 697 2
1000 701 1
1000 800 1
1000 971 1
1000 980 1
1001 1 4
1001 64 1
1001 157 1
1001 167 4
1001 306 4
1001 338 1
1001 342 1
1001 345 2
1001 364 1
1001 573 2
1001 652 1
1001 658 2
1001 787 1
1001 1243 1
1001 1306 1
1002 5 1
1002 75 1
1002 179 1
1002 183 1
1002 186 1
1002 286 1
1002 321 1
1002 459 1
1002 1032 1
1003 50 1
1003 64 1
1003 80 2
1003 86 7
1003 87 3
1003 88 1
1003 153 1
1003 184 1
1003 186 1
1003 187 1
1003 231 1
1003 238 1
1003 259 1
1003 311 1
1003 335 1
1003 356 1
1003 375 1
1003 438 1
1003 645 2
1003 686 2
1003 694 1
1003 770 1
1003 790 1
1003 918 1
1003 935 1
1003 944 1
1003 988 1
1003 1047 1
1003 1090 1
1003 1100 1
1003 1307 1
1004 46 1
1004 76 1
1004 139 2
1004 152 1
1004 175 1
1004 192 1
1004 212 1
1004 252 1
1004 299 2
1004 306 1
1004 313 1
1004 359 1
1004 385 2
1004 536 1
1004 564 2
1004 573 3
1004 580 1
1004 616 3
1004 634 1
1004 658 3
1004 667 1
1004 690 1
1004 691 6
1004 980 1
1004 1079 1
1005 1 3
1005 45 1
1005 71 5
1005 76 1
1005 84 1
1005 128 1
1005 140 1
1005 157 5
1005 167 8
1005 189 1
1005 214 1
1005 245 4
1005 283 2
1005 299 2
1005 306 1
1005 327 1
1005 349 1
1005 430 1
1005 521 1
1005 573 1
1005 658 1
1005 940 1
1005 980 3
1006 5 1
1006 29 1
1006 32 2
1006 41 1
1006 65 2
1006 66 1
1006 86 3
1006 143 3
1006 147 1
1006 153 2
1006 285 1
1006 360 1
1006 415 1
1006 443 1
1006 503 2
1006 635 1
1006 673 1
1006 681 3
1006 685 3
1006 709 1
1006 721 1
1006 1083 4
1006 1245 1
1007 19 1
1007 95 1
1007 103 2
1007 153 3
1007 156 1
1007 191 1
1007 215 1
1007 247 1
1007 259 1
1007 285 1
1007 295 1
1007 484 1
1007 556 1
1007 581 1
1007 705 1
1007 747 2
1008 5 1
1008 35 1
1008 80 1
1008 87 1
1008 95 1
1008 146 1
1008 150 1
1008 153 1
1008 169 1
1008 229 1
1008 267 1
1008 279 1
1008 286 1
1008 319 1
1008 379 1
1008 489 1
1008 513 2
1008 559 1
1008 768 1
1008 814 1
1008 836 1
1008 927 1
1008 1002 1
1008 1054 1
1008 1073 1
1008 1158 1
1008 1205 1
1008 1234 1
1009 21 1
1009 28 3
1009 32 1
1009 48 2
1009 65 1
1009 75 1
1009 86 1
1009 92 1
1009 100 1
1009 101 2
1009 103 2
1009 146 1
1009 153 2
1009 171 1
1009 218 2
1009 398 2
1009 478 1
1009 569 1
1009 712 1
1009 1203 1
1010 82 1
1010 96 1
1010 132 1
1010 183 1
1010 199 1
1010 212 1
1010 238 1
1010 283 7
1010 285 3
1010 301 1
1010 315 1
1010 343 1
1010 347 1
1010 508 1
1010 594 2
1010 966 2
1010 1280 1
1011 50 2
1011 75 2
1011 120 1
1011 125 1
1011 151 1
1011 212 2
1011 229 1
1011 232 1
1011 303 1
1011 346 1
1011 442 1
1011 464 1
1011 471 2
1011 473 1
1011 517 1
1011 554 1
1011 583 1
1011 592 1
1011 594 1
1011 632 1
1011 678 1
1011 736 1
1011 814 1
1011 839 1
1011 895 1
1011 947 1
1011 958 1
1011 1004 4
1011 1043 1
1011 1074 1
1011 1205 1
1012 29 5
1012 41 1
1012 192 1
1012 215 2
1012 251 1
1012 257 1
1012 386 1
1012 423 1
1012 458 2
1012 591 1
1012 592 1
1012 594 2
1012 602 1
1012 630 1
1012 757 2
1012 826 1
1012 893 1
1012 943 1
1012 1165 1
1012 1261 5
1013 1 2
1013 50 1
1013 56 1
1013 64 1
1013 70 1
1013 75 1
1013 76 1
1013 157 2
1013 161 1
1013 167 4
1013 218 4
1013 254 1
1013 256 1
1013 306 1
1013 365 1
1013 470 1
1013 499 4
1013 518 1
1013 531 2
1013 576 1
1013 596 1
1013 718 1
1013 728 1
1014 1 1
1014 21 5
1014 25 1
1014 39 1
1014 70 1
1014 110 1
1014 115 1
1014 216 1
1014 310 1
1014 342 1
1014 379 1
1014 655 1
1014 807 1
1014 953 1
1014 1289 2
1015 5 1
1015 15 2
1015 39 1
1015 40 1
1015 64 1
1015 90 2
1015 118 1
1015 160 1
1015 184 2
1015 186 1
1015 199 1
1015 245 1
1015 285 1
1015 303 1
1015 407 1
1015 458 3
1015 546 3
1015 628 1
1015 630 2
1015 676 5
1015 755 1
1015 843 1
1015 862 2
1015 923 1
1015 961 1
1015 1106 1
1015 1239 5
1015 1299 1
1016 74 1
1016 87 1
1016 115 1
1016 170 1
1016 175 1
1016 191 2
1016 193 6
1016 208 1
1016 218 1
1016 224 1
1016 302 2
1016 333 1
1016 376 1
1016 406 1
1016 419 1
1016 442 2
1016 450 3
1016 474 1
1016 509 1
1016 654 2
1016 660 1
1016 846 1
1016 876 1
1016 938 1
1016 1051 1
1016 1069 2
1016 1202 1
1016 1242 3
1017 19 1
1017 28 1
1017 77 2
1017 199 2
1017 264 2
1017 562 2
1017 563 1
1017 595 2
1017 662 2
1017 713 1
1017 806 1
1017 886 2
1017 959 1
1018 27 1
1018 28 1
1018 76 1
1018 126 1
1018 226 1
1018 272 1
1018 343 1
1018 458 5
1018 633 2
1018 653 1
1018 756 1
1018 827 1
1018 839 1
1018 943 2
1018 1037 1
1018 1098 1
1019 8 1
1019 41 1
1019 46 2
1019 53 1
1019 70 1
1019 75 3
1019 76 2
1019 109 2
1019 110 2
1019 119 1
1019 143 1
1019 157 1
1019 160 2
1019 161 2
1019 175 3
1019 180 1
1019 187 1
1019 192 3
1019 195 3
1019 198 2
1019 212 1
1019 252 3
1019 256 2
1019 259 2
1019 264 1
1019 266 1
1019 283 1
1019 285 2
1019 299 4
1019 306 4
1019 314 2
1019 331 1
1019 338 1
1019 341 1
1019 347 1
1019 360 1
1019 375 4
1019 385 4
1019 412 1
1019 441 1
1019 470 1
1019 484 1
1019 543 1
1019 573 3
1019 634 2
1019 645 1
1019 658 2
1019 660 1
1019 690 1
1019 691 13
1019 701 1
1019 708 2
1019 736 2
1019 960 1
1019 1009 1
1019 1062 1
1019 1241 1
1020 25 1
1020 44 1
1020 45 1
1020 49 2
1020 50 1
1020 79 1
1020 80 1
1020 100 1
1020 150 2
1020 224 1
1020 257 1
1020 277 2
1020 288 1
1020 292 1
1020 442 1
1020 461 1
1020 477 1
1020 595 1
1020 606 1
1020 650 1
1020 660 1
1020 685 1
1020 705 1
1020 986 4
1020 1011 1
1020 1234 2
1020 1242 4
1021 3 1
1021 5 2
1021 39 1
1021 40 1
1021 90 1
1021 160 1
1021 187 1
1021 285 2
1021 324 1
1021 394 1
1021 619 1
1021 676 1
1021 970 1
1022 41 1
1022 45 1
1022 53 1
1022 57 2
1022 80 1
1022 92 1
1022 119 1
1022 124 1
1022 146 8
1022 150 1
1022 160 1
1022 175 6
1022 183 2
1022 274 1
1022 282 1
1022 285 1
1022 387 2
1022 445 1
1022 470 1
1022 495 1
1022 644 2
1022 670 2
1022 720 2
1022 883 1
1022 932 1
1022 971 2
1022 982 1
1023 65 1
1023 92 1
1023 170 2
1023 207 1
1023 216 1
1023 302 1
1023 312 1
1023 343 1
1023 359 2
1023 503 1
1023 507 1
1023 568 1
1023 652 5
1023 661 2
1023 672 2
1023 743 2
1023 1038 1
1023 1073 1
1023 1210 1
1024 1 1
1024 3 4
1024 13 1
1024 21 2
1024 25 12
1024 27 3
1024 66 1
1024 82 1
1024 86 2
1024 94 1
1024 153 1
1024 254 2
1024 332 1
1024 335 1
1024 406 1
1024 443 4
1024 511 2
1024 518 1
1024 544 1
1024 712 1
1024 724 1
1024 1083 2
1024 1084 2
1024 1107 1
1024 1224 2
1025 32 2
1025 160 2
1025 245 3
1025 460 1
1025 628 1
1025 676 1
1025 827 2
1025 1106 1
1025 1239 1
1026 19 1
1026 21 1
1026 25 2
1026 27 2
1026 42 4
1026 95 1
1026 153 5
1026 169 1
1026 218 2
1026 334 1
1026 338 1
1026 375 1
1026 415 1
1026 442 1
1026 572 2
1026 642 1
1026 644 1
1026 647 2
1026 870 1
1026 937 1
1026 1018 2
1026 1155 1
1027 16 1
1027 25 6
1027 35 1
1027 36 1
1027 119 1
1027 143 3
1027 153 2
1027 213 1
1027 261 1
1027 277 1
1027 335 2
1027 356 1
1027 379 1
1027 422 1
1027 443 2
1027 570 1
1027 876 1
1027 1144 1
1027 1284 1
1027 1285 1
1027 1306 1
1028 100 1
1028 150 5
1028 171 1
1028 178 1
1028 180 1
1028 443 2
1028 468 2
1028 503 1
1028 546 1
1028 556 1
1028 672 1
1028 686 1
1028 833 7
1028 1043 1
1028 1281 3
1029 1 1
1029 3 5
1029 10 2
1029 19 1
1029 21 3
1029 25 8
1029 26 1
1029 49 1
1029 94 1
1029 183 2
1029 252 1
1029 388 1
1029 511 1
1029 654 1
1029 660 1
1029 669 1
1029 773 1
1029 843 1
1029 876 1
1029 931 1
1029 991 1
1029 1027 2
1029 1084 1
1029 1308 2
1029 1309 1
1029 1310 1
1030 6 1
1030 21 1
1030 42 10
1030 45 1
1030 65 1
1030 75 2
1030 77 2
1030 101 1
1030 153 2
1030 177 1
1030 178 1
1030 216 1
1030 218 1
1030 303 1
1030 363 1
1030 379 2
1030 410 1
1030 442 2
1030 494 1
1030 512 1
1030 559 2
1030 636 1
1030 692 12
1030 721 1
1030 731 1
1030 760 1
1030 814 1
1030 850 1
1030 908 1
1030 1027 1
1030 1165 1
1030 1212 2
1031 1 2
1031 3 1
1031 109 1
1031 192 1
1031 195 1
1031 232 1
1031 252 1
1031 266 1
1031 269 2
1031 285 3
1031 306 5
1031 580 1
1031 581 1
1031 690 1
1031 691 5
1031 980 3
1031 1034 1
1031 1197 1
1032 9 5
1032 21 1
1032 49 2
1032 50 1
1032 75 2
1032 80 1
1032 103 1
1032 115 1
1032 117 1
1032 123 1
1032 135 1
1032 148 1
1032 149 1
1032 150 2
1032 153 7
1032 169 2
1032 191 1
1032 218 1
1032 223 1
1032 258 1
1032 262 1
1032 331 1
1032 345 1
1032 350 1
1032 390 1
1032 428 1
1032 470 1
1032 471 1
1032 477 1
1032 764 1
1032 842 1
1032 850 1
1032 876 1
1032 892 1
1032 954 1
1032 991 5
1032 1142 1
1032 1188 1
1032 1215 1
1032 1262 1
1032 1289 1
1033 1 1
1033 45 1
1033 81 1
1033 127 2
1033 130 1
1033 157 3
1033 158 1
1033 160 1
1033 177 1
1033 184 1
1033 185 1
1033 195 1
1033 226 2
1033 232 1
1033 237 1
1033 295 1
1033 298 1
1033 342 1
1033 444 1
1033 559 1
1033 578 1
1033 692 1
1033 716 1
1033 719 1
1033 802 2
1033 835 1
1033 897 1
1033 903 1
1033 957 1
1033 1011 1
1033 1066 1
1033 1075 1
1033 1092 3
1033 1135 1
1033 1138 2
1033 1189 1
1033 1226 1
1033 1292 1
1034 7 1
1034 11 1
1034 81 3
1034 85 3
1034 98 1
1034 143 1
1034 151 1
1034 212 2
1034 260 1
1034 323 1
1034 359 1
1034 360 1
1034 368 1
1034 410 1
1034 418 1
1034 575 1
1034 612 4
1034 794 2
1034 987 1
1034 1053 2
1034 1213 1
1034 1255 1
1034 1277 2
1034 1281 1
1035 17 2
1035 37 3
1035 39 6
1035 40 5
1035 52 2
1035 87 1
1035 153 1
1035 164 2
1035 222 2
1035 277 1
1035 300 1
1035 368 1
1035 379 1
1035 459 1
1035 629 1
1035 660 3
1035 671 2
1035 673 1
1035 953 1
1035 974 1
1035 1072 2
1036 80 1
1036 175 1
1036 178 1
1036 183 3
1036 340 1
1036 382 1
1036 510 1
1036 530 1
1036 686 1
1036 865 4
1036 987 1
1036 1027 1
1036 1171 1
1036 1197 1
1037 5 1
1037 10 1
1037 39 3
1037 66 1
1037 75 1
1037 95 2
1037 98 1
1037 102 2
1037 110 1
1037 143 1
1037 153 1
1037 177 1
1037 212 1
1037 213 1
1037 218 1
1037 277 1
1037 303 1
1037 306 8
1037 506 1
1037 768 3
1037 839 2
1037 1031 1
1037 1038 1
1037 1139 1
1037 1221 1
1038 63 1
1038 66 1
1038 76 1
1038 132 1
1038 168 1
1038 259 2
1038 343 1
1038 375 1
1038 395 2
1038 581 2
1038 594 3
1038 843 1
1038 889 1
1038 943 1
1038 1136 1
1038 1189 1
1039 3 1
1039 11 1
1039 19 2
1039 39 1
1039 45 2
1039 46 3
1039 47 3
1039 51 1
1039 75 2
1039 80 1
1039 101 2
1039 160 1
1039 175 1
1039 218 1
1039 242 1
1039 342 1
1039 658 1
1039 744 2
1039 844 1
1040 10 2
1040 60 1
1040 91 1
1040 147 1
1040 153 3
1040 172 1
1040 187 1
1040 250 2
1040 266 1
1040 306 1
1040 372 1
1040 386 5
1040 458 1
1040 512 1
1040 543 1
1040 606 1
1040 613 1
1040 637 1
1040 660 10
1040 720 1
1040 775 1
1040 1296 1
1041 15 1
1041 19 1
1041 32 2
1041 67 1
1041 264 1
1041 285 3
1041 301 1
1041 342 1
1041 412 1
1041 471 2
1041 477 1
1041 505 1
1041 607 1
1041 645 1
1041 678 4
1041 710 1
1041 760 1
1041 891 1
1041 933 1
1041 1075 1
1041 1103 1
1041 1129 1
1041 1153 1
1042 25 3
1042 70 1
1042 101 1
1042 115 2
1042 135 1
1042 218 5
1042 450 2
1042 771 1
1042 850 1
1042 1018 2
1042 1051 1
1042 1052 1
1042 1248 1
1043 1 3
1043 17 1
1043 41 1
1043 46 1
1043 47 1
1043 50 1
1043 102 1
1043 160 1
1043 163 1
1043 175 1
1043 193 3
1043 209 1
1043 218 2
1043 220 2
1043 221 1
1043 228 1
1043 257 1
1043 285 1
1043 303 1
1043 318 1
1043 340 2
1043 386 2
1043 454 1
1043 462 1
1043 471 8
1043 472 1
1043 478 3
1043 607 1
1043 660 2
1043 661 4
1043 672 3
1043 692 1
1043 743 1
1043 779 1
1043 962 1
1043 1018 2
1044 45 1
1044 78 1
1044 80 2
1044 82 3
1044 92 1
1044 141 4
1044 187 1
1044 216 2
1044 257 2
1044 259 1
1044 279 3
1044 302 1
1044 317 1
1044 322 1
1044 329 2
1044 338 2
1044 342 3
1044 393 1
1044 574 1
1044 592 1
1044 619 1
1044 705 1
1044 944 1
1044 1002 1
1044 1038 1
1044 1074 1
1044 1276 1
1044 1311 1
1045 1 4
1045 10 1
1045 44 1
1045 82 3
1045 92 1
1045 122 3
1045 212 1
1045 231 1
1045 257 3
1045 259 2
1045 266 2
1045 302 1
1045 345 1
1045 356 3
1045 597 1
1045 672 3
1045 685 1
1045 705 7
1045 764 7
1045 951 1
1045 989 1
1045 1084 2
1045 1111 7
1045 1227 3
1045 1312 1
1046 1 4
1046 7 2
1046 50 1
1046 81 3
1046 85 1
1046 98 1
1046 146 2
1046 217 5
1046 232 1
1046 267 1
1046 268 2
1046 279 1
1046 303 1
1046 315 1
1046 330 1
1046 372 1
1046 447 2
1046 465 1
1046 597 1
1046 665 1
1046 673 1
1046 780 1
1046 791 1
1046 792 1
1046 837 1
1046 930 4
1047 5 1
1047 23 1
1047 37 1
1047 52 1
1047 92 1
1047 146 6
1047 212 1
1047 214 2
1047 239 2
1047 286 11
1047 302 1
1047 356 1
1047 630 1
1047 705 2
1047 868 1
1047 900 4
1047 918 1
1047 945 1
1047 973 1
1047 981 1
1047 1013 1
1047 1034 1
1047 1084 1
1047 1096 1
1047 1111 5
1047 1137 1
1047 1166 1
1048 143 1
1048 218 1
1048 226 1
1048 232 1
1048 240 1
1048 423 2
1048 442 2
1048 458 1
1048 527 1
1048 717 1
1048 736 2
1048 870 1
1048 964 3
1048 983 1
1048 1058 1
1049 15 1
1049 45 1
1049 46 1
1049 75 1
1049 105 1
1049 157 1
1049 193 1
1049 238 1
1049 257 1
1049 259 1
1049 282 1
1049 299 1
1049 302 2
1049 306 1
1049 338 2
1049 426 1
1049 530 1
1049 546 1
1049 634 1
1049 647 1
1049 705 1
1049 883 1
1049 994 1
1050 25 1
1050 27 2
1050 34 1
1050 63 1
1050 87 1
1050 146 1
1050 156 1
1050 226 1
1050 229 1
1050 251 1
1050 487 1
1050 509 1
1050 550 1
1050 589 2
1050 682 1
1050 694 5
1050 767 1
1050 855 4
1050 867 3
1050 1084 2
1050 1111 4
1050 1266 1
1050 1286 1
1051 76 1
1051 119 3
1051 151 2
1051 179 3
1051 298 1
1051 323 4
1051 365 2
1051 442 2
1051 505 2
1051 544 1
1051 701 1
1051 784 1
1051 884 1
1051 967 1
1051 981 2
1052 1 1
1052 27 1
1052 42 1
1052 48 4
1052 49 1
1052 77 1
1052 115 1
1052 130 1
1052 146 2
1052 147 6
1052 150 1
1052 153 8
1052 163 3
1052 205 1
1052 218 1
1052 226 1
1052 257 4
1052 273 1
1052 301 2
1052 334 2
1052 336 1
1052 364 1
1052 398 1
1052 415 1
1052 471 2
1052 600 3
1052 660 1
1052 673 1
1052 699 1
1052 712 3
1052 732 2
1052 790 1
1052 985 2
1052 1033 1
1052 1118 1
1052 1122 1
1052 1131 1
1052 1145 1
1052 1177 1
1053 76 1
1053 142 1
1053 151 1
1053 167 1
1053 169 1
1053 245 1
1053 285 1
1053 298 1
1053 332 1
1053 377 1
1053 395 1
1053 397 1
1053 555 1
1053 574 1
1053 667 1
1053 863 1
1053 973 1
1053 981 1
1054 10 1
1054 39 1
1054 70 14
1054 74 1
1054 86 3
1054 153 1
1054 222 1
1054 358 1
1054 569 1
1054 641 2
1054 686 3
1054 1257 1
1055 5 1
1055 132 1
1055 179 1
1055 183 1
1055 217 1
1055 223 1
1055 283 1
1055 285 2
1055 286 1
1055 458 1
1055 580 1
1055 589 2
1055 621 1
1055 655 1
1055 659 1
1055 946 1
1055 1100 1
1056 1 2
1056 2 1
1056 5 1
1056 9 2
1056 13 4
1056 21 1
1056 29 3
1056 32 1
1056 65 1
1056 79 1
1056 87 1
1056 151 1
1056 170 2
1056 192 2
1056 226 2
1056 364 4
1056 382 1
1056 388 1
1056 429 1
1056 430 1
1056 488 3
1056 562 1
1056 584 1
1056 613 2
1056 652 1
1056 664 1
1056 712 2
1056 773 1
1056 1083 1
1056 1084 4
1056 1231 1
1056 1309 1
1057 44 1
1057 105 1
1057 109 1
1057 167 4
1057 186 1
1057 234 1
1057 254 3
1057 257 3
1057 299 1
1057 303 1
1057 306 1
1057 309 1
1057 471 4
1057 490 2
1057 515 1
1057 604 1
1057 634 1
1057 658 2
1057 659 1
1057 950 1
1057 974 1
1057 1059 1
1058 86 1
1058 95 2
1058 153 1
1058 301 1
1058 319 2
1058 339 4
1058 412 1
1058 442 2
1058 489 1
1058 635 1
1058 689 2
1058 692 1
1058 814 1
1058 876 1
1058 921 1
1058 1096 1
1058 1177 1
1058 1291 1
1059 42 2
1059 45 1
1059 91 1
1059 110 1
1059 112 1
1059 149 3
1059 157 1
1059 175 6
1059 226 1
1059 275 1
1059 302 1
1059 363 2
1059 375 1
1059 385 4
1059 405 1
1059 541 5
1059 576 1
1059 971 1
1060 10 1
1060 39 1
1060 75 5
1060 97 1
1060 98 1
1060 102 3
1060 153 1
1060 175 2
1060 277 1
1060 356 1
1060 728 1
1060 1152 1
1060 1154 1
1060 1202 1
1060 1257 1
1061 15 2
1061 22 1
1061 25 1
1061 27 1
1061 29 2
1061 35 1
1061 52 1
1061 63 6
1061 72 3
1061 108 3
1061 153 1
1061 214 1
1061 250 1
1061 300 1
1061 306 2
1061 311 2
1061 364 1
1061 390 1
1061 512 2
1061 613 1
1061 625 1
1061 685 1
1061 688 2
1061 694 1
1061 752 1
1061 773 1
1061 875 2
1061 1253 2
1061 1269 6
1061 1313 1
1061 1314 2
1061 1315 1
1061 1316 2
1062 82 1
1062 157 1
1062 163 1
1062 167 7
1062 195 1
1062 281 1
1062 291 1
1062 385 1
1062 427 1
1062 491 2
1062 511 1
1062 527 1
1062 573 1
1062 658 3
1062 710 1
1062 780 1
1062 918 3
1063 3 4
1063 5 1
1063 48 4
1063 75 3
1063 109 1
1063 116 1
1063 139 2
1063 157 3
1063 161 2
1063 167 1
1063 192 1
1063 195 1
1063 238 1
1063 410 1
1063 484 4
1063 658 1
1063 705 1
1063 719 1
1064 1 5
1064 130 1
1064 139 1
1064 142 2
1064 157 2
1064 167 5
1064 186 1
1064 189 1
1064 192 1
1064 277 2
1064 299 1
1064 309 1
1064 573 1
1064 931 1
1064 1243 1
1065 23 2
1065 29 1
1065 154 1
1065 168 1
1065 169 1
1065 254 1
1065 311 2
1065 512 1
1065 531 1
1065 582 3
1065 692 4
1065 903 1
1065 957 1
1065 1154 1
1066 15 2
1066 19 1
1066 31 1
1066 76 1
1066 163 4
1066 302 1
1066 322 2
1066 444 3
1066 465 1
1066 483 2
1066 530 1
1066 660 1
1066 661 1
1066 692 1
1066 781 1
1066 797 1
1066 802 1
1066 803 1
1066 1153 1
1066 1291 1
1067 50 2
1067 70 1
1067 127 1
1067 132 3
1067 190 1
1067 226 1
1067 321 1
1067 335 1
1067 351 1
1067 442 1
1067 483 1
1067 577 1
1067 585 1
1067 626 1
1067 705 1
1067 873 1
1067 1014 1
1067 1027 1
1068 66 1
1068 118 1
1068 132 1
1068 226 1
1068 232 1
1068 326 1
1068 343 2
1068 395 1
1068 432 1
1068 458 3
1068 581 1
1068 620 1
1068 653 1
1068 756 1
1068 776 1
1068 1014 1
1069 64 1
1069 77 1
1069 116 1
1069 127 1
1069 157 2
1069 174 1
1069 179 1
1069 232 1
1069 235 1
1069 272 3
1069 286 3
1069 385 1
1069 395 1
1069 458 1
1069 602 2
1069 658 4
1069 701 1
1069 706 1
1069 863 1
1069 1071 1
1069 1098 1
1070 5 1
1070 10 7
1070 80 1
1070 86 2
1070 160 1
1070 185 1
1070 227 2
1070 303 1
1070 378 3
1070 379 1
1070 402 1
1070 584 1
1070 843 1
1070 927 1
1070 1118 1
1071 1 2
1071 8 2
1071 45 1
1071 139 1
1071 142 2
1071 149 2
1071 157 2
1071 161 4
1071 167 2
1071 169 1
1071 212 1
1071 238 1
1071 275 1
1071 291 1
1071 332 1
1071 490 4
1071 502 1
1071 521 2
1071 658 2
1072 14 1
1072 25 1
1072 50 1
1072 153 2
1072 161 1
1072 206 1
1072 238 1
1072 335 1
1072 375 1
1072 407 1
1072 530 1
1072 567 1
1072 574 1
1072 590 1
1072 616 4
1072 619 1
1072 661 3
1072 672 1
1072 692 1
1072 783 2
1072 1177 1
1073 161 1
1073 178 1
1073 186 1
1073 189 1
1073 191 1
1073 244 1
1073 259 1
1073 282 4
1073 498 1
1073 527 2
1073 542 1
1073 661 4
1073 679 1
1073 836 2
1073 1177 1
1073 1199 1
1073 1291 1
1074 1 4
1074 5 1
1074 142 1
1074 143 1
1074 160 1
1074 167 4
1074 184 1
1074 204 1
1074 232 1
1074 245 2
1074 298 1
1074 299 1
1074 360 1
1074 364 4
1074 372 1
1074 375 1
1074 377 1
1074 386 2
1074 405 1
1074 576 1
1074 709 1
1074 971 1
1074 1175 3
1074 1198 1
1075 7 1
1075 10 2
1075 21 6
1075 28 1
1075 36 1
1075 44 1
1075 70 13
1075 75 1
1075 86 3
1075 147 1
1075 161 1
1075 186 1
1075 218 3
1075 234 1
1075 267 7
1075 303 3
1075 310 4
1075 388 1
1075 389 1
1075 390 2
1075 468 1
1075 503 3
1075 559 4
1075 583 1
1075 673 1
1075 686 1
1075 697 1
1075 707 2
1075 729 1
1075 1043 1
1075 1167 1
1076 15 2
1076 19 2
1076 32 1
1076 43 1
1076 55 1
1076 62 1
1076 77 1
1076 78 1
1076 116 1
1076 186 2
1076 187 1
1076 216 1
1076 227 2
1076 285 1
1076 301 1
1076 336 1
1076 375 5
1076 502 1
1076 642 5
1076 662 1
1076 684 1
1076 697 1
1076 803 1
1076 876 1
1076 886 1
1077 25 3
1077 31 1
1077 35 2
1077 36 1
1077 58 1
1077 91 1
1077 179 1
1077 192 1
1077 279 2
1077 286 2
1077 338 3
1077 356 1
1077 459 1
1077 484 2
1077 527 1
1077 642 1
1077 705 1
1077 784 1
1077 1264 1
1078 27 1
1078 47 2
1078 95 1
1078 103 1
1078 186 1
1078 197 4
1078 412 1
1078 414 1
1078 442 1
1078 446 3
1078 489 3
1078 837 1
1078 958 1
1079 20 1
1079 29 4
1079 32 3
1079 77 1
1079 80 1
1079 127 1
1079 150 1
1079 184 1
1079 192 3
1079 232 1
1079 245 3
1079 266 1
1079 317 1
1079 340 1
1079 363 1
1079 378 1
1079 458 2
1079 471 1
1079 481 1
1079 502 2
1079 581 1
1079 589 1
1079 620 1
1079 755 2
1079 757 1
1079 827 3
1079 829 3
1079 931 1
1079 961 1
1079 1017 1
1079 1072 1
1079 1143 1
1079 1162 1
1079 1283 5
1080 44 1
1080 62 3
1080 76 1
1080 80 2
1080 92 1
1080 109 1
1080 130 1
1080 151 1
1080 157 4
1080 161 7
1080 167 3
1080 180 1
1080 195 1
1080 218 1
1080 232 1
1080 299 1
1080 309 1
1080 332 1
1080 336 1
1080 375 2
1080 410 1
1080 484 2
1080 543 1
1080 573 1
1080 658 1
1080 851 1
1080 1003 2
1080 1071 1
1080 1157 1
1081 1 1
1081 15 1
1081 21 1
1081 24 1
1081 42 3
1081 70 3
1081 86 1
1081 103 1
1081 116 1
1081 130 1
1081 153 1
1081 215 3
1081 216 1
1081 217 1
1081 229 1
1081 314 1
1081 331 1
1081 336 2
1081 471 1
1081 484 1
1081 692 1
1081 753 1
1081 797 1
1081 807 1
1081 1155 1
1081 1211 1
1081 1271 1
1082 5 1
1082 21 2
1082 75 2
1082 77 1
1082 82 1
1082 87 2
1082 92 1
1082 119 1
1082 127 1
1082 156 1
1082 157 1
1082 161 2
1082 167 4
1082 169 1
1082 170 1
1082 190 1
1082 192 1
1082 261 1
1082 301 1
1082 321 2
1082 338 1
1082 372 1
1082 384 1
1082 415 1
1082 426 1
1082 455 2
1082 521 1
1082 530 1
1082 560 1
1082 567 1
1082 573 1
1082 605 1
1082 615 1
1082 626 1
1082 634 1
1082 658 1
1082 705 1
1082 735 1
1082 750 1
1082 852 1
1082 870 1
1082 918 1
1082 981 2
1082 985 1
1082 995 1
1082 1002 1
1082 1044 1
1082 1079 1
1082 1137 1
1082 1206 1
1082 1250 1
1083 1 1
1083 3 3
1083 11 1
1083 20 1
1083 25 1
1083 61 1
1083 78 1
1083 105 3
1083 108 1
1083 143 1
1083 182 1
1083 214 1
1083 252 1
1083 258 1
1083 298 1
1083 306 2
1083 348 1
1083 425 1
1083 442 1
1083 595 3
1083 614 1
1083 633 1
1083 685 4
1083 705 1
1083 814 1
1083 901 1
1083 1047 1
1083 1062 1
1083 1090 2
1083 1182 1
1083 1221 1
1083 1235 1
1083 1317 1
1084 1 1
1084 5 1
1084 28 5
1084 44 1
1084 46 7
1084 70 2
1084 75 1
1084 167 3
1084 218 1
1084 252 1
1084 256 1
1084 412 1
1084 460 8
1084 505 1
1084 820 2
1084 1186 1
1085 20 1
1085 45 5
1085 57 1
1085 86 1
1085 103 2
1085 105 1
1085 109 1
1085 117 1
1085 130 2
1085 157 4
1085 167 12
1085 175 1
1085 189 1
1085 231 1
1085 234 1
1085 291 1
1085 302 2
1085 306 1
1085 316 4
1085 330 1
1085 334 1
1085 364 1
1085 393 1
1085 419 1
1085 438 1
1085 444 5
1085 471 1
1085 484 1
1085 511 1
1085 516 1
1085 546 2
1085 573 5
1085 616 1
1085 658 1
1085 690 1
1085 902 1
1085 978 1
1085 1009 1
1085 1027 1
1085 1029 2
1085 1046 1
1085 1229 1
1085 1250 1
1086 45 2
1086 117 1
1086 118 1
1086 157 10
1086 179 1
1086 257 2
1086 259 1
1086 298 1
1086 306 1
1086 377 1
1086 385 2
1086 422 1
1086 494 1
1086 547 1
1086 634 1
1086 655 2
1086 661 3
1086 800 2
1086 867 1
1086 979 1
1086 1199 1
1086 1219 2
1087 142 1
1087 158 1
1087 171 1
1087 178 1
1087 186 1
1087 245 2
1087 283 1
1087 285 1
1087 286 2
1087 302 1
1087 407 2
1087 458 4
1087 484 1
1087 620 1
1087 729 2
1087 863 1
1087 872 1
1087 942 1
1088 40 3
1088 170 1
1088 286 2
1088 333 1
1088 412 1
1088 423 1
1088 442 1
1088 471 1
1088 527 2
1088 659 1
1088 939 1
1088 1257 8
1089 15 5
1089 80 1
1089 100 1
1089 186 1
1089 229 1
1089 230 2
1089 311 1
1089 313 3
1089 340 3
1089 365 1
1089 407 2
1089 555 1
1089 564 1
1089 582 1
1090 21 2
1090 27 3
1090 28 1
1090 99 1
1090 122 3
1090 125 5
1090 178 1
1090 218 1
1090 220 1
1090 221 1
1090 225 1
1090 402 1
1090 556 2
1090 603 2
1090 846 1
1090 1318 2
1091 7 2
1091 59 8
1091 168 1
1091 170 1
1091 183 2
1091 195 1
1091 207 1
1091 215 1
1091 259 3
1091 280 1
1091 332 2
1091 347 3
1091 510 1
1091 566 1
1091 594 1
1091 724 1
1091 1122 1
1092 44 1
1092 55 1
1092 70 1
1092 85 1
1092 95 2
1092 153 1
1092 183 1
1092 192 1
1092 218 1
1092 260 4
1092 266 5
1092 301 2
1092 332 1
1092 334 1
1092 388 1
1092 390 1
1092 660 2
1092 732 4
1092 1088 1
1092 1089 1
1092 1167 1
1093 41 4
1093 88 1
1093 109 1
1093 256 1
1093 259 1
1093 285 1
1093 347 1
1093 397 2
1093 503 7
1093 555 1
1093 636 1
1093 733 1
1093 930 1
1093 954 1
1093 1065 1
1093 1100 1
1093 1245 1
1094 5 1
1094 132 1
1094 133 1
1094 378 1
1094 392 3
1094 404 1
1094 452 1
1094 458 3
1094 460 1
1094 527 1
1094 576 1
1094 593 1
1094 612 1
1094 631 1
1094 696 1
1094 779 1
1094 943 1
1094 946 1
1094 1021 1
1094 1091 1
1095 1 2
1095 50 1
1095 157 3
1095 160 2
1095 167 1
1095 192 1
1095 195 2
1095 212 1
1095 291 4
1095 319 1
1095 576 3
1095 602 1
1095 658 3
1095 944 1
1095 1059 1
1095 1079 1
1095 1319 1
1096 65 1
1096 91 1
1096 215 1
1096 342 2
1096 364 1
1096 402 1
1096 423 1
1096 737 2
1096 754 3
1096 762 2
1096 775 4
1096 916 1
1096 976 1
1096 1122 1
1097 19 1
1097 43 1
1097 90 1
1097 213 1
1097 372 1
1097 407 3
1097 503 1
1097 519 1
1097 848 1
1097 894 3
1097 1196 5
1098 28 1
1098 127 1
1098 133 1
1098 150 1
1098 266 1
1098 351 3
1098 479 1
1098 591 1
1098 637 1
1098 653 1
1098 821 2
1098 933 1
1098 1025 2
1098 1071 4
1098 1096 1
1098 1138 1
1099 8 1
1099 9 1
1099 75 2
1099 80 1
1099 92 1
1099 106 1
1099 151 1
1099 152 1
1099 167 1
1099 169 1
1099 179 1
1099 315 1
1099 340 2
1099 348 1
1099 547 1
1099 591 1
1099 709 4
1099 808 2
1099 821 1
1099 843 4
1099 923 1
1099 960 2
1099 980 1
1099 1080 1
1099 1143 1
1100 12 1
1100 37 1
1100 70 1
1100 74 1
1100 146 6
1100 153 1
1100 167 2
1100 245 2
1100 285 1
1100 289 1
1100 306 1
1100 347 1
1100 583 1
1100 671 4
1100 895 1
1100 930 1
1100 1087 1
1100 1287 1
1100 1315 1
1101 29 3
1101 76 1
1101 83 1
1101 151 1
1101 168 1
1101 192 2
1101 238 1
1101 266 1
1101 340 1
1101 343 1
1101 378 1
1101 411 1
1101 441 1
1101 458 1
1101 462 1
1101 594 1
1101 602 3
1101 628 1
1101 641 1
1101 755 1
1101 826 3
1101 875 1
1101 943 1
1101 1014 1
1101 1017 1
1101 1101 1
1101 1189 2
1101 1283 2
1102 8 1
1102 15 1
1102 76 2
1102 157 3
1102 163 1
1102 167 3
1102 183 1
1102 238 1
1102 259 1
1102 299 1
1102 306 1
1102 309 1
1102 385 1
1102 426 1
1102 484 1
1102 546 3
1102 576 1
1102 705 1
1102 710 1
1102 851 1
1102 971 1
1102 1033 1
1102 1051 1
1103 5 1
1103 80 1
1103 138 1
1103 151 1
1103 158 1
1103 187 2
1103 302 2
1103 303 1
1103 331 2
1103 335 1
1103 410 1
1103 542 1
1103 628 1
1103 661 1
1103 692 12
1103 694 1
1103 702 1
1103 721 1
1103 1020 1
1103 1212 2
1103 1276 1
1104 1 5
1104 13 1
1104 27 1
1104 32 5
1104 42 4
1104 50 1
1104 86 1
1104 171 2
1104 187 1
1104 220 1
1104 240 1
1104 257 1
1104 264 2
1104 303 1
1104 318 1
1104 336 2
1104 412 1
1104 425 1
1104 442 1
1104 484 1
1104 489 1
1104 574 1
1104 603 1
1104 642 1
1104 645 1
1104 661 1
1104 789 1
1104 797 1
1104 908 1
1104 991 2
1104 1033 1
1104 1155 1
1104 1229 1
1105 15 2
1105 43 1
1105 45 1
1105 80 1
1105 163 1
1105 192 2
1105 229 1
1105 269 2
1105 283 1
1105 285 2
1105 300 3
1105 311 3
1105 335 1
1105 336 1
1105 381 2
1105 636 3
1105 843 1
1105 1143 3
1106 1 6
1106 3 1
1106 39 6
1106 130 1
1106 138 3
1106 186 1
1106 195 2
1106 212 1
1106 214 1
1106 238 8
1106 283 1
1106 325 1
1106 364 1
1106 397 1
1106 454 1
1106 508 1
1106 582 2
1106 733 1
1106 1058 1
1106 1141 1
1107 16 2
1107 17 1
1107 25 4
1107 35 4
1107 36 1
1107 186 1
1107 332 1
1107 379 1
1107 413 3
1107 488 1
1107 515 1
1107 517 1
1107 789 1
1107 1195 1
1107 1260 1
1107 1266 1
1107 1320 1
1108 72 1
1108 74 1
1108 80 7
1108 110 1
1108 134 1
1108 153 1
1108 212 1
1108 234 1
1108 245 2
1108 306 5
1108 324 1
1108 383 1
1108 419 1
1108 616 1
1108 670 1
1108 676 2
1108 685 3
1108 713 1
1108 822 1
1108 862 1
1108 1321 2
1109 25 2
1109 39 5
1109 41 1
1109 84 1
1109 86 2
1109 140 1
1109 154 2
1109 232 1
1109 262 1
1109 299 1
1109 306 1
1109 388 1
1109 390 1
1109 405 3
1109 665 1
1109 951 1
1109 1100 1
1110 55 1
1110 83 1
1110 151 1
1110 272 1
1110 302 1
1110 395 1
1110 399 1
1110 442 1
1110 458 8
1110 516 1
1110 594 3
1110 631 1
1110 660 1
1110 700 2
1110 728 1
1110 803 1
1110 822 1
1110 826 5
1110 827 1
1110 914 1
1110 943 3
1110 1014 3
1110 1039 1
1110 1110 1
1110 1168 3
1110 1298 1
1111 1 1
1111 47 6
1111 64 1
1111 109 1
1111 157 2
1111 160 1
1111 163 1
1111 167 1
1111 178 1
1111 192 1
1111 193 1
1111 199 1
1111 204 1
1111 298 1
1111 442 1
1111 478 1
1111 547 1
1111 552 1
1111 576 1
1111 652 1
1111 658 4
1111 715 2
1111 918 1
1111 1059 1
1111 1060 1
1111 1136 1
1112 13 1
1112 15 4
1112 21 1
1112 25 6
1112 40 1
1112 90 2
1112 91 1
1112 96 1
1112 105 1
1112 179 1
1112 183 2
1112 238 1
1112 245 1
1112 251 1
1112 266 1
1112 289 1
1112 306 1
1112 382 1
1112 383 1
1112 454 1
1112 514 1
1112 613 1
1112 773 2
1112 784 1
1113 1 1
1113 27 4
1113 92 2
1113 178 2
1113 179 1
1113 187 1
1113 205 1
1113 230 1
1113 251 1
1113 259 2
1113 499 3
1113 514 1
1113 705 2
1113 712 3
1113 812 1
1113 1000 1
1113 1068 2
1113 1100 1
1113 1232 1
1113 1246 1
1113 1312 2
1114 45 1
1114 70 2
1114 142 1
1114 157 2
1114 171 1
1114 185 1
1114 232 2
1114 237 1
1114 256 1
1114 306 8
1114 343 1
1114 363 1
1114 386 1
1114 433 1
1114 444 1
1114 493 1
1114 630 1
1114 658 1
1114 697 3
1114 736 1
1114 742 1
1114 801 1
1114 802 1
1114 1035 1
1114 1161 1
1115 64 1
1115 109 1
1115 167 2
1115 178 1
1115 191 1
1115 236 4
1115 254 1
1115 306 1
1115 335 1
1115 336 2
1115 376 1
1115 411 1
1115 490 2
1115 718 1
1115 842 1
1115 843 5
1115 899 1
1115 919 3
1115 1029 4
1115 1087 1
1115 1172 1
1116 46 4
1116 50 2
1116 56 1
1116 70 1
1116 75 1
1116 77 1
1116 80 2
1116 95 1
1116 101 3
1116 102 1
1116 178 1
1116 218 1
1116 233 1
1116 266 1
1116 275 1
1116 279 1
1116 332 1
1116 382 2
1116 432 1
1116 587 4
1116 660 1
1116 672 1
1116 697 6
1116 1100 1
1117 5 1
1117 11 1
1117 43 7
1117 47 1
1117 64 2
1117 65 2
1117 122 1
1117 134 1
1117 153 1
1117 175 1
1117 267 1
1117 274 1
1117 302 2
1117 306 1
1117 311 1
1117 317 1
1117 327 1
1117 331 1
1117 371 1
1117 375 1
1117 431 1
1117 559 1
1117 562 1
1117 862 1
1117 903 1
1117 1132 1
1117 1297 2
1118 29 5
1118 41 2
1118 72 1
1118 83 1
1118 179 1
1118 207 1
1118 215 1
1118 238 2
1118 259 1
1118 266 2
1118 289 3
1118 298 1
1118 377 1
1118 393 1
1118 394 1
1118 423 1
1118 458 3
1118 581 3
1118 701 1
1118 755 2
1118 757 1
1118 784 2
1118 827 1
1118 943 1
1118 1261 4
1118 1283 1
1119 27 1
1119 29 3
1119 50 4
1119 60 1
1119 63 1
1119 70 2
1119 92 1
1119 116 1
1119 119 1
1119 149 2
1119 157 1
1119 178 1
1119 183 1
1119 185 6
1119 226 1
1119 229 1
1119 257 1
1119 259 1
1119 314 1
1119 325 1
1119 332 2
1119 364 1
1119 394 2
1119 415 3
1119 422 1
1119 427 1
1119 498 1
1119 579 4
1119 712 2
1119 802 1
1119 1105 3
1119 1216 1
1119 1264 1
1120 34 1
1120 82 1
1120 146 1
1120 226 3
1120 422 2
1120 499 1
1120 589 1
1120 595 1
1120 597 1
1120 602 1
1120 635 1
1120 666 1
1120 685 7
1120 710 1
1120 712 1
1120 714 1
1120 810 2
1120 814 1
1120 854 1
1120 885 2
1120 938 1
1120 1084 1
1120 1094 1
1120 1101 1
1120 1124 1
1120 1227 1
1120 1267 3
1120 1322 1
1121 16 1
1121 21 1
1121 31 1
1121 35 2
1121 37 1
1121 115 1
1121 119 2
1121 150 4
1121 153 5
1121 254 1
1121 335 1
1121 359 1
1121 413 2
1121 443 2
1121 446 1
1121 488 1
1121 645 1
1121 647 1
1121 683 1
1121 789 2
1121 846 1
1121 1155 1
1121 1260 1
1121 1278 5
1121 1284 3
1121 1285 2
1122 95 1
1122 186 1
1122 266 1
1122 318 1
1122 336 1
1122 381 1
1122 412 3
1122 442 2
1122 489 1
1122 642 5
1122 677 3
1122 692 1
1122 998 1
1123 77 1
1123 114 1
1123 132 6
1123 171 1
1123 172 1
1123 343 7
1123 368 1
1123 376 1
1123 425 1
1123 426 1
1123 515 1
1123 546 1
1123 584 1
1123 686 1
1123 692 1
1123 983 1
1123 1046 1
1123 1049 1
1124 63 1
1124 79 1
1124 87 1
1124 171 1
1124 214 1
1124 237 2
1124 273 1
1124 285 1
1124 286 1
1124 298 1
1124 359 1
1124 364 1
1124 432 1
1124 589 1
1124 613 2
1124 647 1
1124 672 1
1124 685 1
1124 701 1
1124 705 2
1124 776 1
1124 870 2
1124 1007 3
1124 1011 1
1124 1036 1
1124 1084 1
1124 1118 1
1124 1224 1
1125 1 2
1125 11 1
1125 13 2
1125 21 2
1125 25 1
1125 100 1
1125 115 1
1125 146 7
1125 150 1
1125 170 1
1125 260 2
1125 288 2
1125 334 1
1125 388 1
1125 412 1
1125 503 4
1125 644 1
1125 806 1
1125 833 2
1125 941 2
1125 1126 2
1125 1287 5
1125 1297 1
1126 61 2
1126 70 2
1126 80 1
1126 81 1
1126 94 1
1126 119 2
1126 141 4
1126 178 2
1126 185 1
1126 189 1
1126 195 1
1126 202 1
1126 302 1
1126 325 1
1126 331 1
1126 332 1
1126 363 1
1126 375 2
1126 386 1
1126 442 1
1126 670 1
1126 989 1
1126 996 1
1126 1096 6
1126 1188 3
1126 1248 1
1127 1 1
1127 21 1
1127 29 5
1127 52 1
1127 53 1
1127 66 1
1127 80 1
1127 98 1
1127 130 1
1127 146 1
1127 153 1
1127 168 1
1127 175 1
1127 226 1
1127 240 2
1127 303 1
1127 336 1
1127 364 1
1127 595 1
1127 634 1
1127 657 1
1127 673 1
1127 717 1
1127 718 1
1127 720 1
1127 768 2
1127 777 1
1127 822 1
1127 854 1
1127 917 1
1127 1031 1
1127 1050 1
1127 1122 1
1127 1179 3
1127 1292 1
1128 41 1
1128 63 1
1128 90 1
1128 108 2
1128 109 1
1128 187 1
1128 241 1
1128 285 1
1128 286 8
1128 345 1
1128 364 1
1128 386 1
1128 387 2
1128 458 1
1128 502 1
1128 508 1
1128 515 1
1128 527 1
1128 574 1
1128 579 1
1128 710 1
1128 718 1
1128 789 1
1128 822 1
1128 862 1
1128 866 1
1128 899 1
1128 903 2
1129 5 1
1129 29 6
1129 59 2
1129 178 1
1129 192 1
1129 232 1
1129 285 1
1129 332 1
1129 360 2
1129 375 1
1129 458 2
1129 502 1
1129 546 1
1129 576 1
1129 602 1
1129 641 1
1129 696 2
1129 697 1
1129 711 1
1129 773 1
1129 1136 5
1129 1177 1
1129 1180 5
1129 1298 1
1130 12 1
1130 27 1
1130 28 2
1130 34 1
1130 45 1
1130 70 1
1130 81 1
1130 94 2
1130 119 1
1130 147 4
1130 153 3
1130 187 2
1130 240 2
1130 257 5
1130 274 1
1130 303 6
1130 339 1
1130 391 1
1130 410 1
1130 461 1
1130 480 2
1130 489 3
1130 625 1
1130 699 1
1130 712 1
1130 736 1
1130 837 1
1130 876 3
1130 878 1
1130 888 1
1130 921 3
1130 939 3
1130 947 1
1130 1033 1
1130 1177 2
1130 1180 2
1130 1229 1
1130 1319 1
1130 1323 1
1131 56 1
1131 70 2
1131 75 2
1131 86 1
1131 101 2
1131 143 1
1131 161 1
1131 177 4
1131 217 1
1131 218 2
1131 222 2
1131 267 1
1131 303 1
1131 332 1
1131 335 1
1131 373 1
1131 388 1
1131 426 1
1131 450 1
1131 451 1
1131 487 1
1131 489 1
1131 537 2
1131 597 1
1131 1011 1
1131 1018 1
1132 10 1
1132 14 1
1132 34 1
1132 45 1
1132 50 4
1132 147 2
1132 153 3
1132 187 1
1132 205 1
1132 257 7
1132 339 1
1132 412 1
1132 501 1
1132 589 1
1132 660 1
1132 685 1
1132 712 7
1132 773 1
1132 789 1
1132 820 2
1132 1009 1
1132 1069 1
1132 1082 1
1132 1084 1
1132 1128 2
1132 1131 1
1132 1143 1
1132 1203 3
1132 1237 1
1133 28 1
1133 70 1
1133 72 6
1133 79 1
1133 87 1
1133 90 3
1133 170 2
1133 214 1
1133 288 1
1133 302 1
1133 477 2
1133 499 3
1133 512 2
1133 528 2
1133 584 1
1133 599 1
1133 631 1
1133 685 3
1133 1061 1
1133 1264 6
1133 1265 7
1134 5 1
1134 15 1
1134 32 1
1134 132 1
1134 154 1
1134 170 1
1134 178 1
1134 179 2
1134 187 2
1134 202 1
1134 232 1
1134 238 1
1134 259 2
1134 266 1
1134 301 1
1134 338 1
1134 359 1
1134 383 1
1134 449 1
1134 527 3
1134 555 1
1134 562 1
1134 612 1
1134 697 1
1134 705 1
1134 713 1
1134 744 1
1134 781 1
1134 798 1
1134 876 1
1134 956 1
1134 1066 1
1134 1129 1
1134 1173 1
1134 1292 3
1135 1 2
1135 50 2
1135 62 1
1135 75 1
1135 98 1
1135 119 1
1135 153 1
1135 170 1
1135 302 1
1135 303 1
1135 342 1
1135 347 1
1135 375 1
1135 394 2
1135 471 11
1135 484 1
1135 508 1
1135 552 1
1135 632 1
1135 660 1
1135 662 1
1135 820 1
1135 852 2
1135 869 1
1135 888 1
1135 927 1
1135 1291 2
1136 55 1
1136 64 1
1136 77 3
1136 215 2
1136 238 1
1136 259 3
1136 301 4
1136 412 1
1136 442 6
1136 456 1
1136 506 2
1136 574 2
1136 576 2
1136 653 1
1136 661 1
1136 672 1
1136 678 2
1136 708 1
1136 820 2
1136 888 1
1136 939 1
1136 1049 1
1137 5 1
1137 21 1
1137 35 1
1137 50 1
1137 81 4
1137 90 1
1137 109 1
1137 119 1
1137 139 1
1137 146 1
1137 168 3
1137 169 1
1137 172 1
1137 213 1
1137 225 1
1137 232 1
1137 256 1
1137 286 1
1137 303 1
1137 332 3
1137 366 4
1137 375 2
1137 393 1
1137 414 1
1137 528 1
1137 542 1
1137 866 1
1137 1106 1
1138 10 1
1138 13 5
1138 70 4
1138 100 1
1138 122 2
1138 191 2
1138 300 1
1138 373 1
1138 414 3
1138 468 1
1138 497 1
1138 628 1
1138 672 1
1138 685 1
1138 1232 1
1138 1242 1
1139 1 3
1139 3 1
1139 22 1
1139 39 1
1139 70 1
1139 80 1
1139 139 3
1139 226 5
1139 234 1
1139 245 1
1139 327 1
1139 340 1
1139 375 1
1139 412 1
1139 442 2
1139 582 1
1139 678 1
1139 712 8
1139 714 1
1139 773 1
1139 865 1
1139 1112 1
1139 1141 2
1139 1164 1
1139 1182 1
1139 1196 1
1139 1198 1
1140 10 3
1140 175 1
1140 292 3
1140 360 4
1140 375 1
1140 446 1
1140 505 3
1140 511 4
1140 606 1
1140 626 1
1140 645 3
1140 647 5
1140 697 2
1140 701 2
1140 882 6
1140 1011 1
1140 1030 1
1140 1214 2
1141 3 1
1141 32 1
1141 40 1
1141 45 2
1141 66 1
1141 75 2
1141 76 1
1141 80 1
1141 109 1
1141 131 1
1141 153 1
1141 164 1
1141 204 2
1141 226 1
1141 247 1
1141 252 1
1141 261 6
1141 285 1
1141 311 1
1141 327 1
1141 365 1
1141 442 1
1141 495 2
1141 499 4
1141 518 1
1141 573 1
1141 582 1
1141 702 3
1141 808 1
1141 865 1
1141 903 4
1141 932 3
1141 1161 1
1141 1189 1
1141 1323 1
1142 28 3
1142 31 1
1142 48 1
1142 76 2
1142 102 1
1142 151 1
1142 173 2
1142 183 2
1142 189 1
1142 238 1
1142 240 1
1142 516 1
1142 542 1
1142 561 1
1142 591 1
1142 595 2
1142 619 1
1142 622 2
1142 632 1
1142 633 5
1142 679 1
1142 699 1
1142 701 1
1142 733 1
1142 863 1
1142 1073 1
1142 1108 1
1143 35 3
1143 70 1
1143 90 4
1143 143 4
1143 146 11
1143 154 1
1143 300 1
1143 405 2
1143 533 1
1143 570 3
1143 685 10
1143 720 1
1143 743 1
1143 864 1
1143 1063 1
1143 1263 3
1144 1 2
1144 3 1
1144 25 12
1144 29 2
1144 42 1
1144 71 3
1144 75 1
1144 90 1
1144 128 1
1144 208 1
1144 245 1
1144 254 1
1144 311 1
1144 345 2
1144 387 3
1144 457 1
1144 670 1
1144 702 1
1144 861 4
1144 1083 1
1144 1101 2
1144 1198 1
1144 1298 1
1145 1 1
1145 50 1
1145 73 1
1145 76 1
1145 134 2
1145 178 2
1145 258 1
1145 429 1
1145 442 1
1145 469 1
1145 498 2
1145 518 1
1145 607 3
1145 644 1
1145 645 1
1145 660 1
1145 669 1
1145 685 1
1145 705 1
1145 788 1
1145 947 1
1145 964 5
1145 977 3
1145 998 1
1145 1096 1
1145 1103 1
1145 1258 1
1145 1274 2
1145 1301 2
1146 1 3
1146 21 1
1146 42 4
1146 44 1
1146 50 1
1146 70 1
1146 110 1
1146 181 1
1146 192 9
1146 218 1
1146 220 1
1146 228 1
1146 273 1
1146 595 2
1146 670 1
1146 814 1
1146 962 3
1146 1160 1
1146 1319 1
1147 1 1
1147 50 1
1147 65 1
1147 75 3
1147 82 2
1147 147 1
1147 153 1
1147 187 1
1147 197 2
1147 211 1
1147 218 1
1147 244 1
1147 256 1
1147 259 1
1147 286 2
1147 302 1
1147 332 1
1147 336 2
1147 375 1
1147 405 2
1147 443 1
1147 459 1
1147 462 1
1147 556 2
1147 669 1
1147 828 2
1147 852 1
1147 990 1
1148 1 5
1148 2 1
1148 24 2
1148 25 1
1148 29 3
1148 32 3
1148 40 2
1148 65 2
1148 74 1
1148 84 5
1148 90 1
1148 122 1
1148 125 2
1148 143 1
1148 150 2
1148 154 1
1148 186 1
1148 187 1
1148 218 1
1148 254 1
1148 288 1
1148 302 1
1148 338 1
1148 342 1
1148 367 2
1148 499 1
1148 660 1
1148 697 1
1148 763 1
1148 858 1
1148 973 2
1148 1242 1
1149 1 2
1149 57 1
1149 80 1
1149 109 1
1149 157 2
1149 160 2
1149 161 2
1149 163 1
1149 164 1
1149 167 3
1149 192 1
1149 195 1
1149 251 1
1149 272 1
1149 284 1
1149 291 3
1149 302 1
1149 303 2
1149 312 1
1149 349 1
1149 364 1
1149 365 1
1149 393 1
1149 418 1
1149 461 1
1149 481 4
1149 530 1
1149 543 1
1149 544 1
1149 564 1
1149 576 2
1149 658 1
1149 743 1
1149 800 1
1149 821 1
1149 852 1
1149 980 1
1149 1009 1
1150 7 2
1150 36 1
1150 84 1
1150 89 1
1150 126 1
1150 373 1
1150 375 1
1150 382 1
1150 417 1
1150 443 1
1150 503 2
1150 575 1
1150 672 2
1150 705 1
1150 733 3
1150 752 2
1150 864 1
1150 950 1
1150 1090 6
1150 1137 1
1150 1281 1
1151 10 2
1151 13 3
1151 86 1
1151 153 1
1151 217 5
1151 484 10
1151 510 3
1151 616 1
1151 642 10
1151 653 3
1151 870 11
1152 10 1
1152 66 1
1152 92 1
1152 167 1
1152 171 1
1152 185 1
1152 232 1
1152 240 1
1152 255 2
1152 257 1
1152 272 1
1152 306 1
1152 312 6
1152 332 1
1152 392 1
1152 404 1
1152 442 2
1152 461 1
1152 699 1
1152 701 1
1152 719 2
1152 736 3
1152 829 4
1152 1051 1
1152 1143 3
1152 1280 2
1153 14 1
1153 67 2
1153 142 2
1153 171 9
1153 214 2
1153 226 1
1153 251 1
1153 273 1
1153 294 1
1153 302 2
1153 303 1
1153 340 2
1153 471 3
1153 508 1
1153 515 2
1153 574 1
1153 595 3
1153 821 8
1153 843 1
1153 865 3
1153 892 1
1153 1082 1
1153 1096 1
1154 41 1
1154 43 1
1154 64 1
1154 70 1
1154 73 1
1154 86 1
1154 105 3
1154 153 2
1154 173 1
1154 189 1
1154 192 2
1154 218 3
1154 269 3
1154 285 1
1154 304 1
1154 313 3
1154 347 1
1154 376 1
1154 381 2
1154 416 1
1154 536 2
1154 616 2
1154 656 1
1154 1077 1
1154 1172 1
1155 1 3
1155 32 1
1155 35 1
1155 83 1
1155 142 5
1155 157 2
1155 158 1
1155 167 9
1155 178 1
1155 201 1
1155 244 2
1155 252 1
1155 267 1
1155 283 1
1155 298 5
1155 299 1
1155 364 1
1155 386 1
1155 405 3
1155 555 1
1155 581 1
1155 897 1
1155 1146 1
1155 1156 1
1155 1170 1
1155 1172 1
1155 1296 4
1156 3 4
1156 63 3
1156 82 2
1156 110 2
1156 111 1
1156 169 1
1156 189 1
1156 221 1
1156 226 3
1156 251 1
1156 259 1
1156 327 1
1156 350 1
1156 363 1
1156 393 1
1156 560 2
1156 562 1
1156 662 2
1156 671 1
1156 712 1
1156 863 1
1156 900 1
1156 943 1
1156 1027 1
1156 1072 1
1156 1084 1
1156 1100 1
1156 1101 1
1156 1124 1
1156 1128 1
1156 1192 1
1156 1201 2
1156 1241 1
1156 1293 1
1156 1314 1
1156 1317 1
1156 1318 1
1157 28 1
1157 35 2
1157 39 1
1157 41 1
1157 45 1
1157 64 1
1157 81 1
1157 90 2
1157 92 1
1157 115 1
1157 220 1
1157 221 1
1157 368 1
1157 653 1
1157 673 3
1157 685 3
1157 692 1
1157 731 1
1157 797 1
1157 819 1
1157 908 2
1157 914 2
1157 1011 2
1157 1012 1
1157 1147 1
1157 1190 5
1157 1208 12
1157 1263 1
1158 15 1
1158 21 1
1158 32 9
1158 45 1
1158 65 1
1158 119 1
1158 175 3
1158 183 1
1158 216 1
1158 232 1
1158 238 1
1158 245 2
1158 266 1
1158 285 1
1158 319 1
1158 383 1
1158 407 3
1158 495 2
1158 512 1
1158 573 1
1158 602 1
1158 604 2
1158 687 1
1158 729 1
1158 752 1
1158 802 1
1158 903 1
1158 961 1
1158 1147 1
1159 21 1
1159 27 1
1159 34 2
1159 45 1
1159 77 1
1159 80 1
1159 84 1
1159 86 2
1159 95 3
1159 119 1
1159 146 1
1159 153 4
1159 161 1
1159 164 1
1159 216 2
1159 241 1
1159 244 1
1159 257 3
1159 266 2
1159 295 1
1159 302 1
1159 318 2
1159 375 1
1159 379 2
1159 431 1
1159 477 1
1159 488 1
1159 494 2
1159 512 2
1159 541 1
1159 552 1
1159 556 1
1159 595 1
1159 613 1
1159 626 2
1159 636 1
1159 643 1
1159 653 1
1159 672 1
1159 692 2
1159 743 1
1159 747 1
1159 783 1
1159 836 1
1159 844 2
1159 846 1
1159 880 1
1159 947 1
1159 954 1
1159 1101 1
1159 1118 2
1159 1229 2
1160 1 1
1160 45 2
1160 109 1
1160 141 1
1160 157 3
1160 160 1
1160 161 2
1160 167 6
1160 183 1
1160 186 1
1160 195 2
1160 237 1
1160 256 1
1160 261 2
1160 269 1
1160 281 1
1160 283 1
1160 306 1
1160 322 1
1160 335 1
1160 336 1
1160 342 1
1160 347 1
1160 356 1
1160 364 2
1160 365 1
1160 366 1
1160 385 1
1160 415 2
1160 471 2
1160 483 1
1160 495 1
1160 567 1
1160 576 1
1160 581 3
1160 602 1
1160 616 2
1160 634 1
1160 674 1
1160 697 1
1160 758 1
1160 797 1
1160 821 2
1160 870 1
1160 923 1
1160 980 1
1160 1144 1
1161 1 1
1161 40 1
1161 44 1
1161 74 1
1161 77 1
1161 80 1
1161 94 1
1161 139 3
1161 172 1
1161 232 1
1161 250 1
1161 283 1
1161 311 1
1161 371 1
1161 499 4
1161 500 1
1161 595 2
1161 841 1
1161 843 1
1161 1115 1
1161 1128 1
1161 1160 1
1161 1308 1
1162 41 1
1162 52 1
1162 55 3
1162 66 1
1162 70 1
1162 77 1
1162 109 1
1162 142 1
1162 157 4
1162 167 1
1162 171 1
1162 175 1
1162 192 3
1162 232 1
1162 238 2
1162 257 1
1162 306 2
1162 383 1
1162 385 1
1162 395 1
1162 397 2
1162 422 1
1162 442 1
1162 469 1
1162 491 1
1162 617 1
1162 658 5
1162 670 3
1162 776 1
1162 829 1
1162 870 1
1162 872 1
1162 894 1
1162 1014 1
1162 1058 3
1162 1074 1
1162 1143 2
1162 1153 1
1162 1175 1
1163 27 1
1163 28 1
1163 41 1
1163 42 1
1163 46 2
1163 50 16
1163 59 2
1163 96 1
1163 163 3
1163 186 1
1163 189 1
1163 213 1
1163 217 1
1163 234 1
1163 285 3
1163 301 4
1163 412 1
1163 418 4
1163 450 2
1163 489 1
1163 512 1
1163 595 1
1163 597 2
1163 609 3
1163 617 4
1163 642 1
1163 652 2
1163 770 1
1163 771 1
1163 787 1
1163 1067 2
1163 1069 1
1164 31 1
1164 110 1
1164 151 1
1164 170 2
1164 181 1
1164 183 1
1164 405 1
1164 432 1
1164 442 1
1164 454 1
1164 508 1
1164 511 2
1164 527 1
1164 631 1
1164 633 5
1164 724 3
1164 814 4
1164 983 1
1164 1010 1
1164 1039 2
1164 1142 1
1165 1 1
1165 8 1
1165 60 2
1165 70 1
1165 77 1
1165 82 1
1165 105 7
1165 109 1
1165 133 1
1165 168 1
1165 171 1
1165 172 3
1165 175 1
1165 195 1
1165 232 1
1165 247 1
1165 298 1
1165 329 1
1165 371 1
1165 376 1
1165 393 1
1165 422 1
1165 425 1
1165 442 1
1165 443 1
1165 457 2
1165 495 1
1165 515 2
1165 531 1
1165 614 1
1165 633 1
1165 698 1
1165 722 1
1165 748 1
1165 758 1
1165 802 2
1165 814 1
1165 902 1
1165 1005 1
1165 1040 1
1165 1064 1
1165 1066 1
1165 1074 1
1165 1100 1
1165 1153 1
1165 1174 1
1165 1197 1
1165 1200 1
1165 1324 2
1166 27 1
1166 42 1
1166 52 1
1166 74 1
1166 92 2
1166 181 1
1166 183 1
1166 207 1
1166 238 1
1166 239 1
1166 273 1
1166 274 1
1166 286 1
1166 289 1
1166 294 1
1166 298 1
1166 356 4
1166 442 1
1166 475 1
1166 527 1
1166 550 1
1166 603 1
1166 660 1
1166 666 1
1166 833 1
1166 839 1
1166 970 1
1166 1046 1
1166 1084 1
1166 1111 9
1166 1124 1
1166 1137 2
1166 1138 2
1167 21 1
1167 47 1
1167 58 4
1167 62 1
1167 65 4
1167 67 1
1167 122 3
1167 153 1
1167 162 1
1167 257 1
1167 375 1
1167 412 2
1167 458 1
1167 471 1
1167 489 2
1167 531 1
1167 556 1
1167 592 1
1167 621 1
1167 626 1
1167 647 1
1167 774 2
1167 837 1
1167 888 2
1167 921 1
1167 954 6
1168 1 3
1168 9 3
1168 13 3
1168 25 3
1168 37 1
1168 40 2
1168 41 1
1168 52 7
1168 169 1
1168 175 2
1168 178 1
1168 185 1
1168 258 1
1168 286 1
1168 312 2
1168 336 1
1168 363 1
1168 397 2
1168 454 1
1168 467 1
1168 484 2
1168 528 1
1168 545 1
1168 617 1
1168 625 1
1168 712 1
1168 728 1
1168 760 1
1168 768 1
1168 774 4
1168 835 1
1168 882 1
1168 1101 1
1168 1247 1
1168 1258 1
1168 1283 1
1168 1298 1
1169 5 1
1169 32 1
1169 63 2
1169 73 1
1169 122 1
1169 126 1
1169 142 1
1169 151 5
1169 160 1
1169 167 2
1169 172 1
1169 184 5
1169 186 2
1169 192 3
1169 195 1
1169 232 1
1169 238 2
1169 263 1
1169 266 2
1169 272 1
1169 275 1
1169 306 2
1169 312 2
1169 336 1
1169 343 6
1169 345 1
1169 404 1
1169 491 2
1169 598 1
1169 636 1
1169 719 1
1169 736 4
1169 849 1
1169 865 1
1169 876 1
1169 899 1
1169 903 4
1169 916 1
1169 933 1
1170 88 1
1170 90 6
1170 91 1
1170 105 1
1170 119 1
1170 134 2
1170 135 1
1170 161 1
1170 175 1
1170 178 1
1170 187 1
1170 259 3
1170 262 1
1170 325 1
1170 388 1
1170 404 1
1170 497 1
1170 501 1
1170 543 1
1170 590 1
1170 592 1
1170 595 1
1170 598 1
1170 604 1
1170 650 1
1170 661 2
1170 673 1
1170 685 4
1170 692 1
1170 705 1
1170 743 1
1170 836 2
1170 1073 1
1170 1131 1
1170 1153 1
1170 1205 1
1170 1210 4
1170 1238 3
1170 1252 1
1170 1295 6
1171 1 4
1171 77 1
1171 105 1
1171 109 2
1171 139 5
1171 143 1
1171 157 1
1171 160 2
1171 161 1
1171 167 13
1171 170 1
1171 175 2
1171 182 1
1171 185 1
1171 187 1
1171 192 4
1171 193 1
1171 202 1
1171 215 1
1171 218 1
1171 280 4
1171 299 2
1171 306 1
1171 335 1
1171 375 2
1171 463 1
1171 533 1
1171 535 1
1171 539 1
1171 546 1
1171 573 2
1171 602 1
1171 630 1
1171 657 1
1171 658 2
1171 721 1
1171 902 1
1171 1051 1
1171 1170 1
1171 1303 1
1172 1 2
1172 45 1
1172 75 4
1172 81 2
1172 116 1
1172 122 1
1172 128 1
1172 130 2
1172 131 1
1172 139 2
1172 157 1
1172 161 1
1172 167 15
1172 183 1
1172 189 3
1172 214 7
1172 266 1
1172 285 1
1172 299 6
1172 303 2
1172 306 1
1172 331 2
1172 404 2
1172 407 2
1172 442 2
1172 454 1
1172 497 1
1172 505 2
1172 543 1
1172 557 1
1172 586 1
1172 635 1
1172 642 1
1172 658 3
1172 763 3
1172 784 1
1172 835 2
1172 863 1
1172 940 1
1172 979 1
1173 6 1
1173 10 3
1173 11 1
1173 21 2
1173 25 1
1173 37 1
1173 45 1
1173 65 1
1173 75 3
1173 82 1
1173 98 1
1173 117 1
1173 149 1
1173 150 1
1173 153 1
1173 169 1
1173 183 2
1173 249 1
1173 254 1
1173 258 1
1173 261 1
1173 265 1
1173 274 1
1173 283 1
1173 300 1
1173 345 1
1173 382 1
1173 428 1
1173 429 1
1173 543 1
1173 556 1
1173 618 4
1173 623 1
1173 660 1
1173 673 1
1173 701 1
1173 934 1
1173 991 1
1173 1088 1
1173 1133 1
1173 1196 1
1173 1262 1
1174 1 1
1174 7 1
1174 15 2
1174 35 1
1174 57 1
1174 143 1
1174 184 1
1174 229 1
1174 244 1
1174 348 3
1174 363 1
1174 375 1
1174 389 1
1174 402 1
1174 412 3
1174 425 2
1174 528 1
1174 611 2
1174 660 1
1174 673 1
1174 685 1
1174 724 1
1174 734 1
1174 738 1
1174 875 1
1174 990 1
1174 1011 1
1174 1021 1
1174 1050 1
1174 1100 3
1174 1318 10
1175 1 2
1175 3 2
1175 32 6
1175 45 1
1175 76 1
1175 77 1
1175 92 1
1175 93 1
1175 109 2
1175 130 1
1175 142 2
1175 157 1
1175 161 1
1175 172 5
1175 189 1
1175 192 1
1175 195 3
1175 202 1
1175 218 1
1175 237 1
1175 244 2
1175 258 1
1175 311 1
1175 338 1
1175 340 2
1175 364 1
1175 397 1
1175 411 1
1175 414 1
1175 415 1
1175 464 1
1175 543 1
1175 546 1
1175 585 1
1175 602 1
1175 674 1
1175 687 1
1175 784 1
1175 861 1
1175 1057 1
1175 1076 1
1176 1 5
1176 15 2
1176 25 3
1176 34 3
1176 39 1
1176 54 2
1176 88 1
1176 91 3
1176 140 1
1176 142 1
1176 157 17
1176 167 10
1176 183 2
1176 184 1
1176 186 1
1176 192 1
1176 250 1
1176 252 1
1176 254 4
1176 257 1
1176 259 2
1176 285 1
1176 319 1
1176 332 1
1176 336 1
1176 342 1
1176 364 2
1176 365 2
1176 415 9
1176 471 1
1176 543 1
1176 573 1
1176 580 2
1176 636 1
1176 658 1
1176 734 1
1176 803 1
1176 814 1
1176 951 1
1176 956 1
1176 980 1
1176 1060 3
1176 1173 1
1177 1 2
1177 3 1
1177 8 1
1177 22 1
1177 32 1
1177 40 1
1177 45 1
1177 54 2
1177 70 1
1177 76 1
1177 78 1
1177 99 1
1177 109 1
1177 116 1
1177 130 2
1177 142 1
1177 150 1
1177 151 1
1177 167 7
1177 175 1
1177 195 1
1177 216 1
1177 226 1
1177 252 2
1177 254 9
1177 269 4
1177 284 1
1177 302 2
1177 303 1
1177 311 3
1177 313 1
1177 336 1
1177 338 1
1177 342 1
1177 363 2
1177 364 1
1177 385 1
1177 397 4
1177 404 1
1177 415 3
1177 458 1
1177 464 2
1177 508 2
1177 515 1
1177 517 1
1177 539 1
1177 543 2
1177 571 3
1177 580 2
1177 602 1
1177 631 1
1177 694 1
1177 700 2
1177 705 1
1177 950 1
1177 1307 1
1178 15 5
1178 61 1
1178 75 2
1178 78 1
1178 80 25
1178 116 3
1178 117 2
1178 153 1
1178 192 2
1178 217 1
1178 226 1
1178 232 1
1178 274 1
1178 291 9
1178 320 1
1178 331 2
1178 359 1
1178 375 2
1178 385 1
1178 397 1
1178 421 2
1178 454 1
1178 461 1
1178 561 1
1178 563 1
1178 584 1
1178 652 2
1178 667 1
1178 841 1
1178 1042 1
1178 1079 1
1178 1122 1
1178 1154 1
1179 34 6
1179 45 1
1179 95 4
1179 131 1
1179 153 4
1179 178 2
1179 188 1
1179 191 1
1179 213 1
1179 241 1
1179 264 2
1179 266 1
1179 282 2
1179 300 1
1179 339 2
1179 375 1
1179 471 6
1179 484 1
1179 498 1
1179 562 2
1179 645 1
1179 649 1
1179 653 1
1179 660 1
1179 692 3
1179 701 2
1179 814 2
1179 834 1
1179 869 6
1179 1127 2
1179 1131 1
1179 1177 3
1179 1238 1
1179 1261 17
1180 45 2
1180 62 1
1180 122 1
1180 135 1
1180 150 1
1180 161 1
1180 229 1
1180 238 1
1180 241 1
1180 280 1
1180 314 1
1180 339 3
1180 345 1
1180 410 1
1180 425 1
1180 467 1
1180 484 1
1180 498 1
1180 552 1
1180 559 1
1180 626 5
1180 635 2
1180 653 3
1180 705 1
1180 814 2
1180 820 1
1180 835 1
1180 888 1
1180 970 1
1180 984 1
1180 1174 1
1180 1176 1
1181 28 1
1181 45 1
1181 55 1
1181 229 1
1181 254 2
1181 259 2
1181 280 2
1181 302 2
1181 331 2
1181 415 1
1181 461 1
1181 530 2
1181 597 1
1181 641 2
1181 1174 1
1182 5 1
1182 27 1
1182 29 1
1182 35 2
1182 44 1
1182 109 1
1182 147 5
1182 183 1
1182 234 1
1182 251 1
1182 378 2
1182 556 1
1182 578 1
1182 581 1
1182 589 3
1182 595 1
1182 615 1
1182 685 2
1182 789 1
1182 844 1
1182 864 1
1182 1017 2
1182 1102 1
1182 1107 1
1182 1113 1
1183 25 2
1183 147 1
1183 175 1
1183 176 1
1183 212 1
1183 398 1
1183 477 2
1183 488 1
1183 589 2
1183 712 1
1183 857 1
1183 945 1
1183 1015 2
1183 1036 1
1183 1106 1
1183 1232 3
1183 1253 3
1183 1300 1
1183 1325 1
1184 1 3
1184 3 1
1184 64 1
1184 75 1
1184 86 2
1184 101 2
1184 119 1
1184 191 1
1184 218 1
1184 261 1
1184 274 1
1184 285 1
1184 365 1
1184 465 1
1184 647 6
1184 670 1
1184 854 1
1184 995 1
1184 1179 1
1185 17 1
1185 34 7
1185 86 1
1185 95 1
1185 119 1
1185 187 1
1185 205 1
1185 257 4
1185 302 2
1185 317 1
1185 339 1
1185 391 8
1185 427 1
1185 442 2
1185 484 2
1185 527 1
1185 562 1
1185 576 1
1185 634 1
1185 747 1
1185 814 1
1185 842 2
1185 869 2
1185 876 2
1185 921 1
1185 922 1
1185 1002 1
1185 1228 1
1185 1252 1
1185 1256 2
1185 1261 1
1186 27 1
1186 45 1
1186 86 1
1186 267 1
1186 330 1
1186 390 1
1186 442 1
1186 446 1
1186 463 1
1186 477 1
1186 522 1
1186 589 2
1186 697 1
1186 743 2
1186 771 1
1186 776 1
1186 783 1
1186 908 1
1186 1007 1
1186 1043 2
1186 1068 1
1186 1069 1
1186 1071 3
1186 1237 1
1187 21 2
1187 70 1
1187 75 2
1187 84 3
1187 86 1
1187 94 2
1187 95 1
1187 120 1
1187 126 1
1187 153 2
1187 175 1
1187 198 1
1187 298 1
1187 351 1
1187 363 1
1187 423 1
1187 471 2
1187 576 1
1187 626 1
1187 660 1
1187 662 1
1187 692 1
1187 814 2
1187 833 1
1187 880 2
1187 888 1
1187 921 1
1187 968 1
1187 1046 1
1187 1069 3
1187 1094 1
1187 1177 2
1187 1214 1
1187 1228 1
1187 1241 1
1188 62 1
1188 70 1
1188 82 1
1188 128 5
1188 130 1
1188 153 6
1188 162 1
1188 203 2
1188 266 1
1188 267 1
1188 300 1
1188 307 1
1188 334 1
1188 358 1
1188 378 17
1188 418 1
1188 437 4
1188 439 2
1188 462 1
1188 488 1
1188 527 1
1188 561 1
1188 627 2
1188 656 1
1188 685 1
1188 831 1
1188 864 1
1188 971 1
1189 23 2
1189 85 4
1189 88 1
1189 110 2
1189 117 1
1189 240 2
1189 249 3
1189 280 3
1189 364 1
1189 396 1
1189 434 1
1189 461 1
1189 471 1
1189 477 1
1189 556 1
1189 612 1
1189 686 1
1189 833 2
1189 1169 2
1189 1190 3
1190 10 3
1190 80 1
1190 149 1
1190 160 1
1190 167 1
1190 177 2
1190 212 1
1190 218 1
1190 257 1
1190 260 1
1190 316 1
1190 378 1
1190 484 7
1190 519 1
1190 556 1
1190 604 1
1190 624 1
1190 658 1
1190 767 6
1190 774 1
1190 775 1
1190 913 1
1190 1032 1
1190 1085 1
1190 1163 1
1191 13 1
1191 47 1
1191 50 1
1191 70 1
1191 75 1
1191 170 3
1191 232 1
1191 264 2
1191 301 3
1191 336 1
1191 349 1
1191 388 1
1191 412 2
1191 479 1
1191 484 2
1191 645 2
1191 655 3
1191 736 1
1191 960 1
1191 1155 2
1191 1177 1
1191 1210 1
1192 4 1
1192 5 1
1192 10 1
1192 70 4
1192 75 1
1192 95 1
1192 101 1
1192 156 2
1192 167 1
1192 192 3
1192 218 1
1192 237 1
1192 298 1
1192 314 1
1192 366 1
1192 369 1
1192 403 1
1192 443 1
1192 463 1
1192 465 1
1192 512 1
1192 556 1
1192 777 3
1192 852 2
1192 1155 1
1193 38 1
1193 39 2
1193 58 1
1193 90 1
1193 100 1
1193 147 3
1193 183 1
1193 212 1
1193 241 1
1193 259 1
1193 277 2
1193 285 8
1193 302 1
1193 343 8
1193 382 1
1193 398 1
1193 418 2
1193 524 5
1193 589 1
1193 685 4
1193 847 1
1193 864 1
1193 906 1
1193 932 1
1193 940 1
1193 945 2
1193 1015 1
1193 1096 1
1193 1102 4
1193 1154 1
1193 1240 1
1193 1246 1
1193 1253 1
1193 1264 1
1193 1265 1
1193 1322 3
1193 1326 1
1194 5 1
1194 35 1
1194 45 1
1194 58 1
1194 90 2
1194 92 1
1194 115 1
1194 146 2
1194 147 1
1194 169 1
1194 183 1
1194 221 1
1194 267 2
1194 281 1
1194 334 1
1194 589 2
1194 662 1
1194 685 9
1194 723 1
1194 862 1
1194 945 1
1194 956 1
1194 1007 1
1194 1101 3
1194 1201 4
1194 1208 2
1194 1236 1
1194 1295 1
1194 1297 1
1194 1309 1
1194 1313 2
1195 16 3
1195 27 3
1195 29 2
1195 47 5
1195 52 1
1195 62 1
1195 149 1
1195 150 2
1195 153 2
1195 160 1
1195 181 1
1195 182 1
1195 238 2
1195 303 1
1195 363 1
1195 375 1
1195 381 1
1195 393 1
1195 414 1
1195 512 1
1195 592 1
1195 797 3
1195 940 1
1195 1001 1
1195 1096 1
1196 34 1
1196 95 2
1196 187 2
1196 195 1
1196 375 1
1196 442 2
1196 484 1
1196 530 1
1196 692 3
1196 814 3
1196 869 2
1196 876 2
1196 881 1
1196 996 1
1196 1069 2
1196 1177 2
1196 1256 1
1196 1261 1
1197 34 1
1197 47 2
1197 60 1
1197 156 1
1197 158 1
1197 206 1
1197 228 1
1197 257 1
1197 267 1
1197 269 1
1197 274 1
1197 361 1
1197 446 1
1197 531 1
1197 604 1
1197 939 2
1197 1029 4
1198 24 2
1198 79 2
1198 87 2
1198 100 1
1198 105 1
1198 115 5
1198 150 3
1198 203 2
1198 235 2
1198 286 1
1198 288 1
1198 338 1
1198 512 1
1198 572 4
1198 613 1
1198 684 1
1198 697 2
1198 784 1
1198 838 1
1198 858 1
1198 1242 2
1198 1299 3
1199 48 2
1199 78 1
1199 80 6
1199 83 4
1199 86 1
1199 143 1
1199 168 1
1199 171 1
1199 308 2
1199 421 1
1199 498 1
1199 572 1
1199 597 1
1199 616 4
1199 821 3
1199 857 1
1199 1183 4
1199 1299 2
1199 1327 1
1199 1328 3
1199 1329 2
1199 1330 1
1199 1331 1
1200 5 1
1200 80 3
1200 153 1
1200 188 1
1200 257 1
1200 259 1
1200 267 1
1200 306 1
1200 314 1
1200 334 1
1200 410 1
1200 468 1
1200 528 1
1200 629 1
1200 753 1
1200 846 1
1200 1033 1
1200 1069 1
1200 1085 1
1200 1210 1
1200 1255 1
1200 1266 1
1200 1276 1
1200 1332 1
1201 9 1
1201 35 2
1201 90 2
1201 169 1
1201 312 1
1201 389 1
1201 503 3
1201 712 1
1201 810 1
1201 895 1
1201 906 2
1201 1015 2
1201 1250 1
1201 1265 1
1201 1317 1
1201 1320 1
1202 38 1
1202 39 2
1202 40 1
1202 92 1
1202 139 17
1202 153 1
1202 172 1
1202 185 1
1202 213 1
1202 216 2
1202 229 1
1202 256 1
1202 283 3
1202 364 1
1202 404 1
1202 466 1
1202 468 1
1202 512 3
1202 535 1
1202 539 1
1202 674 1
1202 734 1
1202 735 1
1202 908 1
1202 985 1
1202 1100 2
1203 45 1
1203 80 1
1203 105 1
1203 116 1
1203 117 1
1203 129 1
1203 156 2
1203 178 1
1203 230 1
1203 254 1
1203 259 1
1203 269 1
1203 280 2
1203 302 1
1203 370 1
1203 375 1
1203 422 1
1203 465 1
1203 525 1
1203 566 1
1203 581 1
1203 612 1
1203 630 1
1203 734 1
1203 746 1
1203 828 2
1203 843 1
1204 41 2
1204 45 1
1204 70 1
1204 75 2
1204 77 1
1204 86 1
1204 124 1
1204 135 2
1204 149 3
1204 157 2
1204 167 2
1204 274 1
1204 320 1
1204 410 3
1204 969 1
1205 1 1
1205 20 1
1205 52 1
1205 63 1
1205 80 1
1205 93 1
1205 153 1
1205 168 3
1205 187 1
1205 267 1
1205 465 2
1205 494 1
1205 546 2
1205 625 1
1205 698 2
1205 701 1
1205 762 1
1205 966 1
1205 992 3
1205 1333 1
1206 19 1
1206 63 1
1206 90 1
1206 91 5
1206 122 1
1206 146 2
1206 212 1
1206 393 1
1206 475 1
1206 483 1
1206 501 3
1206 527 1
1206 545 1
1206 561 1
1206 562 1
1206 647 1
1206 655 1
1206 685 1
1206 853 2
1206 932 1
1206 940 1
1206 973 1
1206 1011 1
1206 1047 1
1206 1084 1
1206 1086 1
1206 1096 1
1206 1111 1
1206 1293 1
1207 9 1
1207 29 1
1207 80 2
1207 81 2
1207 85 1
1207 95 1
1207 131 1
1207 134 1
1207 146 2
1207 153 1
1207 178 1
1207 188 1
1207 202 1
1207 238 1
1207 257 2
1207 259 2
1207 282 1
1207 295 1
1207 318 1
1207 325 1
1207 336 1
1207 363 1
1207 366 1
1207 410 1
1207 422 1
1207 446 2
1207 518 1
1207 543 1
1207 592 1
1207 626 1
1207 635 2
1207 743 3
1207 753 1
1207 831 1
1207 881 1
1207 977 1
1207 1002 1
1207 1054 1
1207 1074 1
1207 1104 1
1207 1162 1
1208 11 1
1208 27 1
1208 34 1
1208 41 3
1208 50 1
1208 61 2
1208 170 2
1208 171 1
1208 187 1
1208 208 1
1208 216 1
1208 335 1
1208 379 1
1208 382 1
1208 403 1
1208 442 4
1208 471 2
1208 512 1
1208 595 1
1208 643 1
1208 653 12
1208 701 1
1208 734 1
1208 736 1
1208 814 1
1208 848 1
1208 852 1
1208 876 3
1208 974 1
1208 984 1
1208 1001 2
1208 1003 1
1208 1147 1
1208 1175 1
1208 1238 2
1208 1271 1
1209 1 3
1209 9 1
1209 80 4
1209 123 3
1209 169 1
1209 170 3
1209 172 2
1209 186 3
1209 190 1
1209 226 1
1209 251 1
1209 305 1
1209 336 1
1209 404 1
1209 422 1
1209 442 1
1209 458 1
1209 515 1
1209 546 1
1209 558 1
1209 758 3
1209 797 1
1209 815 1
1209 1040 3
1210 45 1
1210 119 1
1210 138 1
1210 156 1
1210 161 1
1210 179 1
1210 185 1
1210 220 1
1210 236 1
1210 249 1
1210 257 2
1210 274 1
1210 300 1
1210 318 1
1210 335 2
1210 339 2
1210 385 1
1210 410 1
1210 442 1
1210 475 1
1210 483 3
1210 484 2
1210 492 1
1210 581 2
1210 626 2
1210 661 2
1210 692 1
1210 783 1
1210 876 1
1210 1003 1
1210 1050 1
1210 1177 1
1210 1228 1
1210 1252 1
1211 12 1
1211 34 4
1211 41 1
1211 44 1
1211 95 2
1211 99 1
1211 100 1
1211 156 1
1211 187 2
1211 188 1
1211 249 1
1211 257 6
1211 285 2
1211 301 1
1211 314 1
1211 339 7
1211 410 1
1211 471 1
1211 489 2
1211 498 1
1211 530 1
1211 562 1
1211 567 1
1211 604 1
1211 614 1
1211 631 1
1211 692 1
1211 921 1
1211 1047 1
1211 1093 2
1211 1152 1
1211 1177 5
1211 1323 1
1212 43 4
1212 45 1
1212 46 1
1212 50 1
1212 75 1
1212 80 1
1212 94 1
1212 113 1
1212 202 1
1212 212 1
1212 245 1
1212 266 2
1212 285 1
1212 300 1
1212 307 8
1212 311 1
1212 381 2
1212 386 5
1212 484 1
1212 602 1
1212 670 1
1212 705 1
1212 1087 1
1212 1093 1
1212 1160 1
1212 1250 1
1213 34 4
1213 76 1
1213 164 1
1213 216 1
1213 238 1
1213 274 1
1213 280 1
1213 301 1
1213 394 1
1213 410 1
1213 471 1
1213 506 1
1213 660 2
1213 662 1
1213 692 3
1213 869 1
1213 905 1
1213 1069 4
1213 1212 3
1213 1220 1
1213 1256 2
1213 1280 2
1214 32 2
1214 34 1
1214 47 1
1214 50 1
1214 62 2
1214 133 2
1214 160 1
1214 161 1
1214 187 2
1214 264 1
1214 281 1
1214 316 1
1214 410 1
1214 473 1
1214 477 1
1214 484 7
1214 498 2
1214 512 1
1214 527 3
1214 604 1
1214 619 1
1214 653 1
1214 661 1
1214 662 1
1214 780 1
1214 814 1
1214 880 2
1214 939 1
1214 984 2
1214 990 1
1214 1021 1
1214 1065 1
1214 1069 1
1214 1177 1
1214 1210 1
1215 34 1
1215 80 1
1215 86 2
1215 92 1
1215 95 3
1215 131 1
1215 162 1
1215 187 1
1215 241 1
1215 267 2
1215 301 1
1215 318 1
1215 334 1
1215 349 1
1215 471 9
1215 506 1
1215 566 1
1215 653 1
1215 662 1
1215 692 2
1215 705 1
1215 814 2
1215 869 2
1215 939 1
1215 970 1
1215 971 1
1215 977 1
1215 1177 1
1215 1228 1
1215 1256 1
1215 1261 1
1215 1291 3
1215 1334 1
1216 35 1
1216 140 1
1216 259 1
1216 271 1
1216 297 1
1216 334 1
1216 474 1
1216 475 2
1216 531 2
1216 589 4
1216 635 1
1216 678 1
1216 685 1
1216 945 1
1216 1253 1
1216 1313 1
1216 1335 2
1217 32 2
1217 75 3
1217 80 1
1217 112 4
1217 156 1
1217 160 8
1217 177 1
1217 192 1
1217 208 6
1217 244 1
1217 311 2
1217 331 5
1217 345 1
1217 359 1
1217 386 1
1217 468 1
1217 694 1
1217 808 1
1217 903 2
1217 932 1
1217 1009 1
1217 1103 1
1217 1162 1
1217 1176 1
1218 5 1
1218 64 1
1218 75 2
1218 80 8
1218 109 1
1218 117 1
1218 151 1
1218 153 1
1218 163 1
1218 167 2
1218 178 1
1218 182 1
1218 186 1
1218 192 1
1218 229 1
1218 238 1
1218 267 2
1218 298 1
1218 300 4
1218 302 1
1218 303 1
1218 307 1
1218 397 1
1218 584 1
1218 636 1
1218 652 1
1218 843 6
1218 902 1
1218 1065 2
1219 45 2
1219 57 1
1219 82 1
1219 90 1
1219 95 1
1219 135 1
1219 140 1
1219 156 1
1219 172 1
1219 187 1
1219 238 1
1219 257 6
1219 281 1
1219 314 1
1219 422 1
1219 467 1
1219 530 1
1219 559 1
1219 566 1
1219 581 3
1219 672 1
1219 676 1
1219 719 1
1219 971 2
1219 1171 1
1219 1188 1
1220 24 1
1220 79 1
1220 285 2
1220 319 4
1220 357 1
1220 375 1
1220 448 1
1220 449 1
1220 462 1
1220 511 1
1220 589 1
1220 697 2
1220 724 1
1220 792 1
1220 794 3
1220 839 1
1220 875 2
1220 1278 2
1221 9 2
1221 24 1
1221 25 1
1221 50 1
1221 75 1
1221 81 2
1221 84 1
1221 86 1
1221 113 1
1221 115 1
1221 119 1
1221 131 1
1221 141 1
1221 150 4
1221 153 2
1221 169 1
1221 175 1
1221 271 1
1221 388 1
1221 428 1
1221 429 1
1221 470 1
1221 512 1
1221 553 1
1221 556 1
1221 570 1
1221 595 1
1221 597 1
1221 608 1
1221 645 1
1221 647 1
1221 670 1
1221 697 1
1221 833 1
1221 882 1
1221 934 1
1221 991 1
1221 1188 1
1221 1247 1
1221 1258 1
1221 1262 1
1222 9 3
1222 42 1
1222 52 1
1222 63 1
1222 64 1
1222 80 1
1222 119 3
1222 144 2
1222 153 1
1222 157 1
1222 168 3
1222 178 1
1222 189 1
1222 195 1
1222 243 1
1222 245 1
1222 254 1
1222 326 1
1222 363 1
1222 378 1
1222 388 2
1222 398 1
1222 463 1
1222 517 1
1222 581 1
1222 594 1
1222 634 1
1222 670 2
1222 685 1
1222 734 1
1222 784 1
1222 804 1
1222 993 1
1222 1171 1
1222 1193 1
1222 1195 2
1222 1288 1
1223 19 1
1223 21 3
1223 38 3
1223 39 3
1223 43 1
1223 45 2
1223 66 1
1223 73 1
1223 75 4
1223 80 1
1223 88 1
1223 93 1
1223 248 2
1223 303 1
1223 307 2
1223 382 1
1223 396 2
1223 466 1
1223 571 1
1223 635 1
1223 840 13
1223 1123 1
1224 5 2
1224 15 7
1224 45 2
1224 70 2
1224 75 2
1224 80 7
1224 91 1
1224 127 4
1224 153 1
1224 157 1
1224 164 1
1224 167 3
1224 175 1
1224 178 1
1224 179 2
1224 229 1
1224 234 1
1224 237 1
1224 267 1
1224 274 2
1224 302 2
1224 343 1
1224 363 1
1224 401 1
1224 421 2
1224 512 1
1224 515 1
1224 694 1
1224 821 10
1224 844 1
1224 890 1
1224 923 1
1224 932 1
1225 40 3
1225 95 3
1225 192 1
1225 198 1
1225 215 1
1225 238 1
1225 259 8
1225 314 2
1225 412 1
1225 527 1
1225 556 1
1225 652 1
1225 668 1
1225 669 2
1225 708 1
1225 782 1
1225 820 1
1226 34 5
1226 45 1
1226 50 4
1226 95 3
1226 161 1
1226 178 1
1226 188 1
1226 339 2
1226 420 1
1226 456 1
1226 484 2
1226 489 1
1226 542 1
1226 692 1
1226 869 1
1226 1095 1
1226 1177 3
1226 1252 1
1226 1261 2
1227 56 1
1227 80 1
1227 88 1
1227 153 1
1227 160 1
1227 163 1
1227 168 1
1227 169 1
1227 255 1
1227 287 1
1227 319 1
1227 357 1
1227 442 1
1227 484 1
1227 515 1
1227 528 1
1227 791 1
1227 1091 1
1227 1169 1
1227 1204 1
1228 5 1
1228 25 3
1228 41 1
1228 50 1
1228 82 1
1228 86 2
1228 115 1
1228 150 1
1228 153 3
1228 158 1
1228 168 1
1228 285 1
1228 300 1
1228 328 1
1228 333 1
1228 382 1
1228 528 2
1228 606 1
1228 626 1
1228 645 5
1228 647 2
1228 655 1
1228 697 1
1228 777 4
1228 941 1
1228 1068 1
1229 20 2
1229 168 2
1229 193 1
1229 203 1
1229 378 4
1229 427 1
1229 437 3
1229 514 2
1230 21 4
1230 27 3
1230 44 1
1230 45 1
1230 50 1
1230 187 1
1230 197 3
1230 203 1
1230 235 4
1230 285 1
1230 325 1
1230 372 1
1230 415 1
1230 421 1
1230 512 2
1230 592 1
1230 705 3
1230 838 1
1230 920 1
1230 1022 1
1230 1041 1
1230 1134 1
1230 1160 1
1231 11 2
1231 53 1
1231 81 2
1231 96 1
1231 153 1
1231 164 1
1231 169 1
1231 257 1
1231 277 2
1231 368 1
1231 442 1
1231 512 2
1231 542 1
1231 598 1
1231 640 1
1231 645 1
1231 703 1
1231 722 2
1231 831 1
1231 833 3
1231 924 1
1231 925 2
1231 947 2
1231 951 1
1231 1011 1
1231 1115 1
1231 1121 1
1231 1125 4
1231 1276 2
1232 5 1
1232 90 1
1232 141 1
1232 146 1
1232 147 1
1232 157 1
1232 171 1
1232 174 1
1232 192 2
1232 297 1
1232 327 1
1232 332 1
1232 345 1
1232 422 2
1232 430 1
1232 470 2
1232 475 1
1232 501 1
1232 503 1
1232 647 1
1232 685 1
1232 705 1
1232 779 1
1232 780 1
1232 900 1
1232 1063 1
1232 1084 2
1232 1111 5
1232 1207 2
1232 1216 1
1232 1218 1
1232 1314 1
1233 45 7
1233 129 1
1233 158 1
1233 168 1
1233 185 1
1233 240 1
1233 272 1
1233 281 1
1233 342 1
1233 347 1
1233 351 1
1233 393 1
1233 404 1
1233 442 1
1233 458 2
1233 636 1
1233 1014 1
1233 1165 1
1234 14 1
1234 24 1
1234 45 2
1234 75 1
1234 80 1
1234 82 2
1234 84 2
1234 86 1
1234 87 3
1234 91 1
1234 100 2
1234 117 1
1234 149 1
1234 150 1
1234 153 9
1234 157 1
1234 232 1
1234 257 3
1234 267 1
1234 441 1
1234 442 3
1234 553 1
1234 554 1
1234 614 1
1234 619 1
1234 648 1
1234 680 1
1234 692 3
1234 836 1
1234 1137 1
1235 5 4
1235 27 1
1235 35 2
1235 41 1
1235 57 1
1235 90 5
1235 119 1
1235 135 1
1235 138 1
1235 140 1
1235 175 1
1235 220 2
1235 267 1
1235 315 2
1235 332 1
1235 382 1
1235 446 3
1235 477 1
1235 482 1
1235 595 1
1235 685 5
1235 686 1
1235 810 2
1235 876 1
1235 953 4
1235 1007 3
1235 1008 1
1235 1011 4
1235 1090 1
1235 1232 1
1235 1267 1
1235 1294 1
1235 1301 1
1235 1326 1
1235 1336 1
1236 35 2
1236 49 1
1236 50 1
1236 90 2
1236 92 1
1236 100 1
1236 131 1
1236 136 2
1236 216 2
1236 252 1
1236 257 1
1236 292 1
1236 315 1
1236 419 1
1236 460 1
1236 512 1
1236 522 1
1236 527 1
1236 645 2
1236 672 1
1236 685 2
1236 686 1
1236 747 1
1236 876 3
1236 938 1
1236 940 1
1236 953 1
1236 957 1
1236 1011 3
1236 1068 8
1236 1119 1
1236 1190 1
1236 1225 2
1236 1267 2
1236 1294 1
1236 1313 1
1236 1325 1
1236 1335 3
1237 83 1
1237 92 1
1237 132 7
1237 139 2
1237 172 2
1237 244 1
1237 250 4
1237 296 1
1237 359 1
1237 543 1
1237 652 1
1237 701 1
1237 722 1
1237 822 1
1237 965 3
1238 21 5
1238 45 2
1238 66 1
1238 75 4
1238 150 1
1238 167 4
1238 229 1
1238 254 4
1238 274 1
1238 303 1
1238 306 3
1238 307 3
1238 354 1
1238 635 1
1238 753 1
1238 840 6
1238 1162 1
1239 1 3
1239 10 1
1239 32 2
1239 35 1
1239 70 1
1239 75 1
1239 139 1
1239 153 2
1239 157 2
1239 167 4
1239 215 1
1239 232 1
1239 254 2
1239 257 1
1239 266 1
1239 298 4
1239 303 1
1239 315 1
1239 332 4
1239 338 1
1239 364 1
1239 399 2
1239 415 1
1239 436 1
1239 662 1
1239 702 1
1239 800 1
1239 804 1
1239 814 1
1239 883 1
1239 1054 2
1239 1132 1
1239 1202 1
1239 1337 1
1240 35 1
1240 80 1
1240 81 4
1240 87 1
1240 151 1
1240 186 1
1240 279 1
1240 305 1
1240 379 1
1240 446 4
1240 596 8
1240 612 1
1240 649 3
1240 982 1
1241 73 1
1241 82 1
1241 146 2
1241 183 1
1241 304 1
1241 311 1
1241 364 2
1241 685 3
1241 712 2
1241 864 1
1241 906 1
1241 1054 1
1241 1242 1
1241 1244 1
1241 1297 1
1241 1317 1
1242 29 1
1242 35 4
1242 85 1
1242 158 1
1242 232 1
1242 363 2
1242 417 1
1242 544 2
1242 648 1
1242 1048 1
1242 1213 1
1243 1 4
1243 7 1
1243 10 2
1243 25 1
1243 45 1
1243 52 2
1243 61 1
1243 70 2
1243 84 4
1243 93 1
1243 98 1
1243 105 1
1243 106 1
1243 122 1
1243 125 1
1243 148 1
1243 150 2
1243 153 2
1243 169 1
1243 175 1
1243 187 1
1243 252 1
1243 257 1
1243 280 7
1243 296 1
1243 319 1
1243 364 1
1243 422 1
1243 442 1
1243 553 1
1243 556 1
1243 625 1
1243 858 2
1243 922 1
1243 1061 1
1243 1211 1
1243 1245 2
1244 8 1
1244 19 1
1244 21 1
1244 46 1
1244 50 7
1244 77 2
1244 119 1
1244 151 1
1244 169 1
1244 175 2
1244 187 2
1244 191 1
1244 198 2
1244 218 3
1244 232 1
1244 257 1
1244 259 2
1244 264 1
1244 287 1
1244 301 1
1244 302 1
1244 314 1
1244 318 4
1244 336 1
1244 402 2
1244 412 1
1244 415 2
1244 477 1
1244 479 1
1244 480 1
1244 501 1
1244 547 1
1244 592 1
1244 645 1
1244 747 1
1244 752 1
1244 797 1
1244 876 1
1244 953 1
1245 16 1
1245 25 8
1245 35 1
1245 36 1
1245 119 1
1245 122 1
1245 143 2
1245 153 1
1245 158 1
1245 261 1
1245 277 1
1245 335 1
1245 379 1
1245 383 1
1245 413 2
1245 443 2
1245 597 1
1245 606 1
1245 629 1
1245 652 1
1245 846 1
1245 1021 1
1245 1089 1
1245 1144 1
1245 1185 1
1245 1284 1
1245 1332 1
1246 1 1
1246 7 3
1246 10 3
1246 20 1
1246 75 2
1246 115 1
1246 117 1
1246 146 3
1246 153 1
1246 154 1
1246 159 1
1246 279 1
1246 448 1
1246 450 2
1246 497 1
1246 512 1
1246 566 1
1246 645 1
1246 672 1
1246 705 1
1246 747 1
1246 794 1
1246 1018 1
1246 1125 2
1246 1200 1
1247 21 1
1247 35 1
1247 41 1
1247 49 1
1247 50 1
1247 64 1
1247 81 1
1247 90 1
1247 134 1
1247 147 1
1247 175 1
1247 254 1
1247 257 1
1247 389 2
1247 392 2
1247 476 1
1247 477 1
1247 532 1
1247 685 1
1247 810 2
1247 916 1
1247 953 4
1247 954 1
1247 978 1
1247 1007 2
1247 1011 3
1247 1121 1
1247 1264 2
1248 13 1
1248 15 1
1248 19 1
1248 21 3
1248 25 2
1248 43 1
1248 56 2
1248 75 4
1248 84 1
1248 86 1
1248 101 2
1248 157 4
1248 161 2
1248 167 5
1248 179 1
1248 192 1
1248 229 1
1248 245 8
1248 264 2
1248 274 1
1248 291 1
1248 298 5
1248 338 1
1248 351 1
1248 364 1
1248 366 1
1248 385 1
1248 405 1
1248 407 1
1248 444 1
1248 658 1
1248 701 1
1248 876 1
1248 968 2
1249 13 1
1249 21 1
1249 41 4
1249 80 1
1249 93 1
1249 94 1
1249 129 1
1249 202 1
1249 224 1
1249 260 2
1249 298 1
1249 320 1
1249 325 1
1249 361 2
1249 412 2
1249 509 5
1249 511 2
1249 704 5
1249 741 1
1249 816 1
1249 1122 1
1250 1 1
1250 2 1
1250 10 1
1250 21 1
1250 75 1
1250 79 1
1250 80 1
1250 85 1
1250 131 1
1250 175 1
1250 186 1
1250 192 1
1250 224 1
1250 388 1
1250 528 1
1250 580 1
1250 602 1
1250 617 1
1250 624 1
1250 627 1
1250 721 1
1250 797 1
1250 846 1
1251 13 1
1251 27 1
1251 32 1
1251 34 3
1251 44 1
1251 62 1
1251 86 1
1251 95 1
1251 153 1
1251 170 1
1251 187 1
1251 230 1
1251 301 1
1251 375 1
1251 442 2
1251 484 1
1251 488 1
1251 489 1
1251 556 2
1251 597 1
1251 653 2
1251 662 1
1251 692 7
1251 814 1
1251 869 4
1251 876 2
1251 921 1
1251 958 1
1251 962 1
1251 1046 3
1251 1069 1
1251 1097 1
1251 1177 1
1251 1238 1
1252 1 3
1252 3 5
1252 4 2
1252 11 1
1252 13 1
1252 21 7
1252 86 3
1252 185 1
1252 258 1
1252 274 1
1252 388 1
1252 398 1
1252 429 1
1252 458 2
1252 506 6
1252 625 1
1252 660 1
1252 773 1
1252 858 8
1252 1138 1
1252 1197 2
1252 1247 1
1252 1308 1
1252 1309 1
1253 7 1
1253 50 1
1253 70 1
1253 86 1
1253 119 1
1253 172 1
1253 259 1
1253 277 1
1253 292 1
1253 382 1
1253 388 1
1253 419 1
1253 446 1
1253 477 3
1253 606 1
1253 645 2
1253 647 1
1253 654 1
1253 1036 1
1253 1232 1
1253 1242 2
1253 1312 1
1253 1325 1
1254 13 1
1254 21 3
1254 40 1
1254 70 3
1254 77 3
1254 80 1
1254 95 1
1254 102 4
1254 161 1
1254 165 1
1254 186 1
1254 200 1
1254 215 1
1254 218 5
1254 227 2
1254 238 2
1254 286 1
1254 331 1
1254 412 1
1254 442 5
1254 478 1
1254 486 3
1254 1147 1
1255 13 1
1255 44 1
1255 53 1
1255 64 1
1255 101 1
1255 102 1
1255 131 1
1255 175 1
1255 218 1
1255 266 1
1255 301 3
1255 331 1
1255 375 1
1255 415 1
1255 419 3
1255 443 1
1255 471 1
1255 489 1
1255 518 1
1255 536 2
1255 704 3
1255 709 1
1255 1129 1
1255 1311 1
1256 1 5
1256 3 5
1256 32 1
1256 80 6
1256 88 1
1256 141 1
1256 151 3
1256 153 2
1256 158 1
1256 167 1
1256 168 2
1256 169 1
1256 199 1
1256 206 7
1256 266 1
1256 274 2
1256 300 3
1256 311 7
1256 315 1
1256 319 1
1256 323 2
1256 338 2
1256 371 1
1256 394 1
1256 415 1
1256 421 2
1256 422 4
1256 431 1
1256 434 1
1256 442 1
1256 487 1
1256 492 1
1256 648 1
1256 655 1
1256 718 1
1256 721 1
1256 883 2
1256 891 1
1256 971 1
1256 1089 1
1256 1135 1
1257 45 1
1257 64 1
1257 66 1
1257 104 2
1257 109 1
1257 116 1
1257 127 1
1257 141 1
1257 168 1
1257 176 3
1257 192 1
1257 226 1
1257 229 1
1257 238 1
1257 244 1
1257 281 1
1257 336 1
1257 345 2
1257 366 1
1257 418 1
1257 457 1
1257 495 1
1257 505 1
1257 527 2
1257 592 1
1257 701 1
1257 721 1
1257 902 1
1257 1303 1
1258 39 1
1258 175 3
1258 188 1
1258 212 1
1258 306 1
1258 422 1
1258 635 1
1258 711 2
1258 718 1
1258 896 1
1258 917 1
1258 1052 1
1258 1089 1
1258 1140 3
1259 9 1
1259 24 1
1259 45 1
1259 75 2
1259 80 1
1259 84 1
1259 86 1
1259 169 1
1259 175 2
1259 254 1
1259 286 5
1259 294 2
1259 326 1
1259 553 1
1259 592 1
1259 614 1
1259 703 1
1260 21 2
1260 44 1
1260 84 1
1260 130 1
1260 139 6
1260 157 2
1260 167 8
1260 189 1
1260 229 1
1260 254 2
1260 274 1
1260 291 1
1260 298 4
1260 315 1
1260 364 1
1260 372 1
1260 405 1
1260 539 1
1260 568 1
1260 635 1
1260 797 1
1260 839 1
1260 1334 1
1261 63 1
1261 90 1
1261 96 1
1261 143 1
1261 158 2
1261 184 2
1261 250 1
1261 254 1
1261 286 7
1261 300 1
1261 325 1
1261 389 1
1261 432 1
1261 442 1
1261 527 2
1261 673 1
1261 685 10
1261 848 2
1261 862 1
1261 876 1
1261 900 1
1261 1154 1
1261 1233 1
1261 1240 1
1261 1275 1
1261 1320 5
1261 1336 1
1262 14 1
1262 65 1
1262 75 1
1262 80 1
1262 82 3
1262 88 1
1262 109 1
1262 116 1
1262 153 4
1262 164 1
1262 179 2
1262 327 1
1262 377 1
1262 410 1
1262 544 1
1262 672 1
1262 1063 1
1263 5 2
1263 21 5
1263 35 1
1263 72 1
1263 78 1
1263 104 1
1263 171 2
1263 183 1
1263 192 2
1263 212 1
1263 243 2
1263 258 1
1263 279 1
1263 319 3
1263 381 1
1263 423 1
1263 458 1
1263 501 1
1263 511 1
1263 559 1
1263 606 2
1263 685 4
1263 713 1
1263 727 1
1263 864 1
1263 916 1
1263 1065 1
1263 1227 3
1263 1253 6
1263 1276 1
1263 1322 1
1264 60 1
1264 77 2
1264 110 1
1264 182 1
1264 237 1
1264 269 2
1264 273 1
1264 309 1
1264 319 1
1264 366 2
1264 559 5
1264 574 1
1264 598 1
1264 835 1
1264 947 1
1264 991 1
1264 1066 1
1265 1 1
1265 25 5
1265 29 2
1265 52 1
1265 76 1
1265 90 1
1265 91 1
1265 92 1
1265 128 2
1265 167 4
1265 175 1
1265 184 1
1265 229 1
1265 298 3
1265 378 7
1265 509 1
1265 512 1
1265 527 1
1265 540 1
1265 550 1
1265 581 1
1265 625 1
1265 635 1
1265 644 1
1265 673 7
1265 832 1
1265 837 1
1265 895 1
1265 1017 12
1265 1061 1
1265 1084 1
1265 1146 1
1265 1196 1
1265 1203 1
1266 1 1
1266 75 1
1266 88 1
1266 168 1
1266 187 1
1266 191 1
1266 226 1
1266 259 2
1266 384 1
1266 415 1
1266 460 3
1266 471 5
1266 484 1
1266 553 4
1266 595 1
1266 642 10
1266 662 1
1266 770 1
1266 876 1
1266 1037 1
1266 1101 1
1266 1235 1
1267 12 1
1267 14 1
1267 44 2
1267 175 1
1267 187 1
1267 246 1
1267 259 1
1267 280 5
1267 283 1
1267 352 1
1267 355 1
1267 384 1
1267 455 1
1267 498 1
1267 512 1
1267 514 4
1267 627 3
1267 866 1
1267 1115 1
1267 1137 1
1267 1217 1
1268 44 1
1268 154 3
1268 186 1
1268 187 1
1268 192 3
1268 234 1
1268 259 2
1268 280 10
1268 283 1
1268 299 3
1268 302 1
1268 314 2
1268 384 4
1268 434 1
1268 468 1
1268 543 1
1268 841 1
1268 892 1
1268 1115 1
1269 5 1
1269 9 1
1269 55 1
1269 81 1
1269 130 1
1269 168 2
1269 169 1
1269 180 1
1269 189 1
1269 216 4
1269 256 2
1269 266 1
1269 275 1
1269 314 1
1269 578 2
1269 592 1
1269 594 1
1269 697 1
1269 797 1
1269 804 2
1269 825 1
1269 941 1
1269 1040 2
1269 1150 1
1269 1220 1
1269 1303 1
1269 1334 1
1270 35 3
1270 70 1
1270 76 1
1270 80 1
1270 81 1
1270 153 1
1270 278 1
1270 378 2
1270 419 1
1270 442 1
1270 508 1
1270 530 1
1270 612 1
1270 626 1
1270 954 1
1270 998 1
1270 1123 1
1270 1137 1
1271 1 1
1271 32 1
1271 56 1
1271 66 1
1271 75 1
1271 76 1
1271 81 1
1271 95 1
1271 105 1
1271 119 1
1271 121 1
1271 150 1
1271 151 1
1271 173 1
1271 205 1
1271 249 1
1271 274 2
1271 303 1
1271 357 7
1271 389 1
1271 410 1
1271 412 3
1271 462 5
1271 465 1
1271 471 2
1271 528 1
1271 552 2
1271 554 3
1271 556 1
1271 584 1
1271 592 1
1271 635 2
1271 660 1
1271 673 1
1271 779 1
1271 780 1
1271 836 2
1271 847 1
1271 881 1
1271 971 1
1271 993 1
1271 1110 1
1271 1134 1
1272 5 2
1272 28 1
1272 47 2
1272 60 1
1272 80 4
1272 158 1
1272 193 2
1272 256 1
1272 257 1
1272 291 3
1272 316 1
1272 361 1
1272 391 9
1272 442 2
1272 474 2
1272 478 2
1272 491 1
1272 578 1
1272 604 3
1272 843 1
1272 961 1
1272 1029 2
1272 1134 1
1273 45 2
1273 50 1
1273 71 1
1273 84 3
1273 86 1
1273 88 3
1273 92 1
1273 153 1
1273 157 1
1273 191 1
1273 195 1
1273 220 1
1273 226 1
1273 281 4
1273 311 1
1273 312 1
1273 340 1
1273 412 1
1273 441 1
1273 442 1
1273 454 1
1273 471 1
1273 512 1
1273 554 1
1273 581 1
1273 694 1
1273 797 1
1273 883 1
1273 932 1
1273 1027 1
1273 1298 1
1274 1 1
1274 21 1
1274 28 1
1274 39 1
1274 73 1
1274 76 1
1274 78 1
1274 88 2
1274 92 1
1274 102 1
1274 141 1
1274 146 4
1274 178 1
1274 202 1
1274 238 1
1274 254 3
1274 264 1
1274 281 2
1274 335 1
1274 405 1
1274 410 1
1274 412 1
1274 460 1
1274 507 1
1274 512 1
1274 556 1
1274 654 1
1274 655 1
1274 685 5
1274 814 1
1274 862 2
1274 957 1
1274 959 1
1274 975 1
1274 986 1
1274 1138 1
1274 1198 1
1275 70 1
1275 75 6
1275 76 2
1275 80 2
1275 82 1
1275 88 5
1275 114 3
1275 122 1
1275 168 1
1275 172 2
1275 208 1
1275 254 1
1275 256 4
1275 257 8
1275 266 1
1275 283 1
1275 311 2
1275 331 4
1275 341 1
1275 342 3
1275 359 1
1275 363 1
1275 375 2
1275 415 1
1275 442 1
1275 461 2
1275 468 1
1275 661 1
1275 883 1
1275 968 3
1275 1176 1
1276 1 2
1276 3 4
1276 70 2
1276 117 1
1276 119 1
1276 127 1
1276 129 1
1276 153 2
1276 157 7
1276 191 1
1276 215 1
1276 218 1
1276 226 2
1276 235 2
1276 257 1
1276 261 1
1276 299 1
1276 325 1
1276 338 2
1276 363 1
1276 371 1
1276 376 1
1276 393 1
1276 405 1
1276 415 2
1276 431 1
1276 471 1
1276 512 1
1276 538 1
1276 547 1
1276 573 2
1276 653 1
1276 663 1
1276 720 1
1276 750 1
1276 814 1
1276 843 1
1276 852 1
1276 883 1
1276 932 1
1276 957 2
1276 1152 1
1276 1164 1
1277 1 1
1277 20 1
1277 27 1
1277 31 1
1277 45 4
1277 50 1
1277 74 1
1277 75 1
1277 76 1
1277 88 3
1277 95 5
1277 151 2
1277 153 5
1277 186 3
1277 215 1
1277 218 2
1277 238 1
1277 254 1
1277 281 2
1277 283 4
1277 321 6
1277 327 1
1277 335 2
1277 338 4
1277 381 1
1277 382 1
1277 405 1
1277 429 1
1277 506 1
1277 512 1
1277 544 4
1277 549 2
1277 556 3
1277 564 1
1277 574 4
1277 654 1
1277 655 1
1277 888 6
1277 891 2
1277 957 1
1277 1085 1
1277 1149 1
1278 1 1
1278 5 1
1278 12 1
1278 45 2
1278 59 4
1278 114 2
1278 116 1
1278 138 1
1278 157 1
1278 186 1
1278 212 1
1278 247 1
1278 283 15
1278 286 6
1278 350 1
1278 363 1
1278 364 6
1278 386 7
1278 387 10
1278 389 1
1278 442 1
1278 495 1
1278 602 1
1278 620 3
1278 802 1
1278 876 1
1278 896 1
1278 903 1
1279 45 1
1279 60 1
1279 65 1
1279 77 1
1279 114 1
1279 119 2
1279 130 1
1279 132 4
1279 137 1
1279 138 1
1279 213 2
1279 251 1
1279 302 1
1279 345 1
1279 407 3
1279 408 1
1279 409 1
1279 442 1
1279 458 1
1279 484 2
1279 566 1
1279 581 1
1279 626 1
1279 630 2
1279 653 2
1279 730 1
1279 825 1
1279 892 1
1280 10 1
1280 16 1
1280 25 3
1280 35 2
1280 65 1
1280 80 1
1280 86 1
1280 91 2
1280 94 1
1280 175 1
1280 178 2
1280 254 1
1280 415 1
1280 570 1
1280 614 1
1280 619 1
1280 635 1
1280 647 1
1280 814 1
1280 1067 1
1280 1260 1
1281 14 1
1281 50 1
1281 82 1
1281 95 4
1281 161 1
1281 175 7
1281 188 1
1281 212 3
1281 274 1
1281 303 2
1281 356 1
1281 402 1
1281 429 3
1281 477 3
1281 498 3
1281 594 1
1281 634 1
1281 661 2
1281 701 1
1281 708 1
1281 810 1
1281 836 1
1281 906 1
1281 1001 3
1281 1252 1
1282 35 1
1282 84 2
1282 179 1
1282 266 2
1282 298 2
1282 331 1
1282 378 1
1282 379 1
1282 381 1
1282 624 2
1282 627 1
1282 682 1
1282 762 2
1282 811 2
1282 856 2
1282 916 1
1282 976 2
1282 1163 1
1282 1292 1
1282 1305 1
1283 35 4
1283 65 1
1283 70 1
1283 77 1
1283 80 3
1283 82 1
1283 111 2
1283 114 1
1283 175 2
1283 286 1
1283 313 10
1283 347 1
1283 371 4
1283 396 1
1283 409 1
1283 415 1
1283 419 3
1283 421 1
1283 442 1
1283 526 2
1283 592 1
1283 737 1
1283 800 1
1283 896 1
1283 991 1
1284 8 1
1284 38 1
1284 39 1
1284 45 1
1284 88 1
1284 90 2
1284 100 1
1284 143 1
1284 150 1
1284 153 1
1284 192 1
1284 231 1
1284 241 2
1284 295 1
1284 311 4
1284 332 1
1284 343 12
1284 367 4
1284 415 1
1284 591 1
1284 602 1
1284 721 1
1284 903 1
1284 919 1
1284 957 3
1285 5 1
1285 105 1
1285 117 5
1285 151 1
1285 170 6
1285 283 2
1285 338 2
1285 384 8
1285 413 1
1285 442 8
1285 486 3
1285 512 1
1285 598 1
1285 613 3
1285 686 1
1285 735 1
1285 812 1
1285 954 2
1285 985 1
1285 1245 1
1286 21 3
1286 28 6
1286 98 3
1286 102 2
1286 135 1
1286 140 1
1286 203 1
1286 274 3
1286 277 1
1286 334 1
1286 356 1
1286 360 1
1286 378 1
1286 419 9
1286 437 2
1286 511 1
1286 730 1
1286 813 1
1286 990 1
1286 1067 3
1286 1160 1
1286 1251 1
1287 9 1
1287 29 9
1287 45 1
1287 149 1
1287 185 1
1287 192 1
1287 214 1
1287 258 1
1287 265 1
1287 280 1
1287 283 1
1287 305 2
1287 370 9
1287 378 3
1287 429 1
1287 443 1
1287 465 1
1287 493 1
1287 527 1
1287 602 1
1287 660 1
1287 721 1
1287 773 1
1287 785 2
1287 802 3
1287 804 1
1287 900 1
1287 932 1
1287 1017 1
1287 1028 1
1287 1056 1
1287 1084 1
1287 1140 2
1287 1262 1
1287 1303 2
1288 3 2
1288 7 1
1288 10 6
1288 21 2
1288 41 1
1288 86 1
1288 99 1
1288 113 1
1288 135 6
1288 143 1
1288 153 6
1288 218 2
1288 274 1
1288 285 1
1288 303 1
1288 318 1
1288 372 1
1288 393 1
1288 398 1
1288 412 1
1288 556 2
1288 614 1
1288 635 1
1288 645 1
1288 947 2
1288 955 1
1288 959 1
1289 11 1
1289 49 1
1289 50 1
1289 81 3
1289 90 2
1289 170 1
1289 178 1
1289 183 1
1289 191 1
1289 215 1
1289 234 1
1289 336 3
1289 337 5
1289 375 1
1289 389 1
1289 390 2
1289 442 3
1289 446 1
1289 448 1
1289 476 2
1289 477 1
1289 550 1
1289 607 6
1289 685 3
1289 862 1
1289 876 1
1289 1004 2
1289 1007 3
1289 1036 3
1289 1046 1
1289 1088 1
1289 1090 2
1289 1115 1
1289 1232 1
1289 1244 1
1289 1338 1
1290 21 2
1290 75 1
1290 80 1
1290 95 4
1290 102 5
1290 116 1
1290 131 1
1290 140 1
1290 150 1
1290 153 1
1290 160 1
1290 177 1
1290 195 12
1290 218 1
1290 257 1
1290 262 1
1290 291 5
1290 375 1
1290 412 1
1290 960 3
1290 1210 2
1290 1217 1
1291 5 2
1291 74 1
1291 88 3
1291 117 2
1291 142 1
1291 151 1
1291 168 1
1291 186 2
1291 237 2
1291 252 1
1291 285 1
1291 346 3
1291 458 1
1291 527 2
1291 758 2
1291 804 1
1291 903 2
1291 966 1
1291 1035 1
1292 1 9
1292 25 2
1292 35 1
1292 84 2
1292 126 1
1292 167 1
1292 283 1
1292 298 1
1292 622 1
1292 686 1
1292 791 1
1292 876 1
1292 1024 1
1292 1168 1
1292 1185 1
1293 65 2
1293 88 2
1293 163 1
1293 167 3
1293 186 1
1293 235 1
1293 274 1
1293 298 1
1293 309 1
1293 378 4
1293 471 3
1293 512 2
1293 1252 1
1294 57 4
1294 75 1
1294 86 2
1294 153 1
1294 161 1
1294 188 4
1294 215 3
1294 235 2
1294 254 1
1294 259 1
1294 285 2
1294 314 2
1294 471 1
1294 718 1
1294 838 1
1294 979 1
1294 1153 1
1294 1250 1
1295 8 1
1295 14 1
1295 19 1
1295 117 3
1295 141 1
1295 149 3
1295 157 4
1295 257 1
1295 278 3
1295 342 1
1295 375 2
1295 380 1
1295 385 3
1295 405 1
1295 494 1
1295 819 1
1295 851 4
1295 1177 1
1295 1219 1
1295 1228 1
1296 21 1
1296 45 1
1296 66 7
1296 70 1
1296 75 11
1296 86 1
1296 94 1
1296 135 1
1296 152 1
1296 153 2
1296 167 5
1296 254 3
1296 259 1
1296 315 1
1296 415 1
1296 530 1
1296 722 1
1296 821 1
1296 843 1
1297 10 2
1297 21 2
1297 42 1
1297 95 1
1297 153 2
1297 181 1
1297 218 3
1297 314 1
1297 338 1
1297 418 2
1297 472 1
1297 482 1
1297 553 3
1297 644 1
1297 647 1
1297 833 2
1297 870 1
1297 951 1
1297 1018 1
1297 1337 1
1298 1 1
1298 52 1
1298 86 3
1298 90 1
1298 122 2
1298 125 1
1298 150 1
1298 153 1
1298 191 5
1298 218 1
1298 269 1
1298 311 1
1298 364 1
1298 511 1
1298 556 1
1298 645 1
1298 654 1
1298 685 2
1298 705 1
1298 900 1
1298 924 1
1298 948 1
1298 1125 4
1298 1140 1
1298 1242 1
1298 1279 1
1299 50 3
1299 82 12
1299 92 1
1299 95 4
1299 119 1
1299 128 7
1299 145 1
1299 157 1
1299 160 1
1299 170 2
1299 171 1
1299 192 1
1299 238 1
1299 282 1
1299 285 1
1299 302 1
1299 318 1
1299 326 1
1299 339 2
1299 393 1
1299 410 1
1299 419 1
1299 427 1
1299 445 1
1299 446 1
1299 471 6
1299 477 2
1299 484 4
1299 556 1
1299 559 1
1299 614 1
1299 619 1
1299 635 1
1299 662 3
1299 705 4
1299 710 2
1299 721 1
1299 764 1
1299 806 1
1299 810 1
1299 814 1
1299 852 1
1299 905 1
1299 1001 1
1299 1097 2
1299 1210 1
1299 1249 2
1299 1261 2
1299 1271 1
1300 16 1
1300 24 2
1300 30 1
1300 31 1
1300 35 2
1300 79 1
1300 86 2
1300 122 1
1300 143 1
1300 150 1
1300 153 2
1300 178 1
1300 191 2
1300 192 1
1300 225 1
1300 256 1
1300 286 1
1300 292 1
1300 379 1
1300 392 1
1300 412 1
1300 414 1
1300 512 1
1300 541 1
1300 553 1
1300 556 1
1300 622 1
1300 660 1
1300 686 1
1300 833 1
1300 855 2
1300 948 1
1300 976 1
1300 1125 2
1300 1248 1
1300 1297 1
1300 1306 1
1301 29 1
1301 45 2
1301 86 2
1301 144 1
1301 160 1
1301 161 2
1301 167 5
1301 186 1
1301 267 1
1301 306 2
1301 410 1
1301 444 1
1301 458 3
1301 602 1
1301 658 4
1301 706 1
1301 1059 1
1301 1330 1
1302 40 1
1302 52 1
1302 76 2
1302 80 5
1302 123 2
1302 168 1
1302 189 3
1302 236 2
1302 237 1
1302 338 3
1302 375 1
1302 384 2
1302 475 1
1302 698 2
1302 722 1
1302 772 1
1302 1073 1
1302 1164 4
1302 1198 1
1302 1309 1
1303 5 1
1303 12 1
1303 25 4
1303 46 2
1303 56 1
1303 99 1
1303 170 9
1303 175 2
1303 186 1
1303 187 3
1303 264 6
1303 273 1
1303 301 1
1303 318 2
1303 359 5
1303 429 2
1303 435 4
1303 442 1
1303 474 5
1303 485 4
1303 512 2
1303 528 10
1303 603 4
1303 639 1
1303 654 1
1303 686 1
1303 813 1
1303 1237 1
1304 1 2
1304 9 1
1304 50 1
1304 84 1
1304 117 1
1304 131 1
1304 167 3
1304 340 1
1304 383 1
1304 405 1
1304 419 1
1304 446 1
1304 522 1
1304 685 4
1304 711 1
1304 780 1
1304 875 1
1304 899 2
1304 916 1
1304 1232 1
1305 92 1
1305 149 1
1305 150 1
1305 153 6
1305 157 1
1305 158 1
1305 172 1
1305 187 1
1305 203 2
1305 220 1
1305 232 1
1305 234 1
1305 250 1
1305 263 3
1305 285 2
1305 298 1
1305 306 1
1305 331 1
1305 352 1
1305 540 1
1305 543 1
1305 550 2
1305 680 1
1305 739 5
1305 803 1
1305 1324 1
1305 1330 1
1306 1 2
1306 3 1
1306 5 1
1306 20 1
1306 21 1
1306 25 5
1306 28 2
1306 38 2
1306 39 2
1306 41 1
1306 42 1
1306 45 1
1306 65 1
1306 70 1
1306 76 1
1306 101 1
1306 161 1
1306 187 1
1306 192 1
1306 216 1
1306 220 1
1306 257 1
1306 303 1
1306 318 1
1306 379 1
1306 383 2
1306 442 3
1306 460 3
1306 567 1
1306 582 1
1306 715 1
1306 800 3
1306 868 4
1306 1068 2
1306 1172 1
1306 1296 4
1307 1 1
1307 45 1
1307 50 1
1307 75 3
1307 144 1
1307 167 3
1307 274 1
1307 284 4
1307 306 5
1307 589 2
1307 1298 1
1308 1 5
1308 28 1
1308 29 1
1308 35 4
1308 72 1
1308 92 1
1308 154 1
1308 162 1
1308 169 1
1308 187 1
1308 234 1
1308 378 5
1308 542 1
1308 543 1
1308 652 1
1308 655 1
1308 822 1
1308 1017 5
1308 1083 4
1308 1217 1
1309 29 2
1309 70 2
1309 100 1
1309 138 1
1309 154 1
1309 226 1
1309 229 1
1309 266 3
1309 289 2
1309 309 1
1309 319 1
1309 332 1
1309 338 1
1309 363 1
1309 364 1
1309 368 1
1309 393 1
1309 595 1
1309 622 3
1309 645 1
1309 685 2
1309 694 1
1309 743 2
1309 753 1
1309 784 1
1309 872 1
1309 990 1
1309 1011 1
1309 1121 1
1309 1125 2
1309 1276 2
1310 1 1
1310 25 1
1310 35 2
1310 63 2
1310 82 1
1310 90 1
1310 143 1
1310 226 1
1310 319 1
1310 334 1
1310 335 1
1310 375 1
1310 398 1
1310 544 1
1310 589 5
1310 621 1
1310 685 1
1310 712 1
1310 721 1
1310 805 1
1310 853 1
1310 885 2
1310 1101 2
1310 1128 2
1310 1193 1
1310 1242 1
1310 1264 3
1311 5 1
1311 9 1
1311 115 1
1311 226 1
1311 265 1
1311 292 1
1311 428 1
1311 669 1
1311 682 1
1311 683 2
1311 775 1
1311 789 1
1311 1031 2
1311 1067 1
1311 1126 1
1311 1247 1
1311 1254 1
1311 1284 2
1312 20 1
1312 41 1
1312 46 1
1312 50 1
1312 61 1
1312 75 2
1312 95 6
1312 142 1
1312 170 1
1312 187 5
1312 208 1
1312 218 2
1312 224 3
1312 234 1
1312 256 1
1312 294 1
1312 311 3
1312 315 1
1312 331 1
1312 354 1
1312 359 1
1312 405 1
1312 412 2
1312 462 1
1312 473 3
1312 481 1
1312 708 1
1312 954 1
1312 1181 1
1313 5 1
1313 41 1
1313 87 2
1313 88 1
1313 135 1
1313 168 1
1313 244 1
1313 257 1
1313 279 1
1313 286 1
1313 305 2
1313 319 1
1313 347 1
1313 359 1
1313 363 1
1313 372 1
1313 375 1
1313 515 2
1313 649 1
1313 655 1
1313 840 5
1313 979 1
1313 1228 1
1314 3 1
1314 21 2
1314 43 1
1314 71 2
1314 80 4
1314 88 1
1314 153 13
1314 157 1
1314 192 1
1314 193 15
1314 202 2
1314 252 1
1314 257 2
1314 266 2
1314 281 6
1314 301 1
1314 306 1
1314 311 1
1314 338 2
1314 418 1
1314 512 2
1314 555 1
1314 655 1
1314 706 1
1314 897 6
1314 1319 2
1315 21 1
1315 25 1
1315 35 1
1315 70 1
1315 126 1
1315 174 1
1315 267 2
1315 413 1
1315 419 1
1315 455 1
1315 547 1
1315 627 1
1315 660 1
1315 704 3
1315 1054 1
1315 1117 1
1315 1181 1
1316 32 1
1316 45 1
1316 57 3
1316 80 1
1316 86 1
1316 107 1
1316 153 1
1316 240 1
1316 259 1
1316 285 4
1316 301 1
1316 302 1
1316 320 1
1316 321 1
1316 462 1
1316 504 1
1316 572 1
1316 619 1
1316 635 1
1316 680 1
1316 744 1
1316 979 2
1316 1118 1
1316 1183 4
1316 1218 2
1316 1299 3
1316 1327 1
1316 1328 2
1316 1329 1
1316 1330 1
1317 1 1
1317 10 2
1317 35 1
1317 53 1
1317 88 1
1317 98 1
1317 117 1
1317 146 8
1317 153 2
1317 170 1
1317 171 2
1317 176 1
1317 260 1
1317 277 5
1317 294 1
1317 446 7
1317 764 1
1317 767 2
1317 839 1
1317 1000 6
1317 1190 2
1318 1 1
1318 31 1
1318 42 3
1318 60 2
1318 69 1
1318 116 1
1318 135 3
1318 187 1
1318 201 1
1318 205 1
1318 244 2
1318 257 1
1318 469 1
1318 661 1
1318 671 1
1318 692 2
1318 697 1
1318 781 1
1318 797 2
1318 876 1
1318 1037 1
1318 1271 1
1319 15 1
1319 21 4
1319 34 1
1319 55 1
1319 76 1
1319 86 1
1319 90 1
1319 95 1
1319 133 2
1319 171 1
1319 187 1
1319 205 1
1319 259 1
1319 274 1
1319 285 1
1319 336 5
1319 409 5
1319 445 1
1319 506 1
1319 524 2
1319 525 1
1319 559 2
1319 567 5
1319 571 1
1319 581 1
1319 635 1
1319 671 1
1319 692 1
1319 721 1
1319 814 2
1319 828 4
1319 878 2
1319 1028 2
1319 1177 1
1320 1 1
1320 12 1
1320 52 1
1320 65 1
1320 91 2
1320 110 1
1320 120 1
1320 132 3
1320 157 1
1320 178 1
1320 180 1
1320 186 1
1320 187 1
1320 192 1
1320 234 1
1320 241 4
1320 252 1
1320 278 1
1320 283 2
1320 285 1
1320 343 1
1320 354 1
1320 394 1
1320 452 1
1320 634 1
1320 636 1
1320 673 2
1320 841 1
1320 916 1
1320 965 2
1320 1217 1
1321 1 3
1321 7 1
1321 35 3
1321 87 4
1321 111 1
1321 142 1
1321 155 1
1321 186 1
1321 223 1
1321 257 1
1321 260 2
1321 463 1
1321 559 1
1321 572 1
1321 574 1
1321 597 1
1321 660 1
1321 673 1
1321 768 3
1321 817 1
1321 818 4
1321 912 2
1321 1050 1
1321 1051 1
1322 1 1
1322 21 1
1322 28 3
1322 42 1
1322 44 1
1322 163 1
1322 181 1
1322 218 2
1322 220 1
1322 262 1
1322 303 1
1322 463 1
1322 471 2
1322 505 1
1322 587 1
1322 595 1
1322 654 1
1322 973 1
1322 1269 1
1323 9 2
1323 75 1
1323 86 2
1323 149 2
1323 153 2
1323 166 1
1323 169 1
1323 191 1
1323 192 2
1323 193 1
1323 258 1
1323 261 1
1323 274 1
1323 326 1
1323 378 2
1323 379 1
1323 382 1
1323 413 1
1323 422 1
1323 428 1
1323 429 2
1323 442 1
1323 460 2
1323 463 2
1323 467 1
1323 506 1
1323 600 1
1323 617 1
1323 647 2
1323 673 1
1323 784 1
1323 1096 1
1323 1164 1
1323 1198 1
1324 21 2
1324 75 1
1324 81 1
1324 264 7
1324 274 1
1324 303 2
1324 462 1
1324 696 1
1324 799 2
1324 1010 1
1324 1117 2
1324 1282 2
1325 1 4
1325 25 5
1325 32 4
1325 35 1
1325 57 1
1325 85 2
1325 90 2
1325 149 1
1325 153 1
1325 157 2
1325 167 1
1325 178 1
1325 240 1
1325 257 3
1325 274 1
1325 298 1
1325 419 1
1325 749 3
1325 780 1
1325 862 1
1325 916 2
1325 958 1
1325 1048 6
1325 1203 8
1325 1324 1
1326 10 1
1326 21 2
1326 35 2
1326 65 1
1326 80 1
1326 92 1
1326 95 1
1326 102 2
1326 150 1
1326 193 1
1326 218 1
1326 228 1
1326 285 1
1326 300 3
1326 315 1
1326 334 1
1326 378 2
1326 413 1
1326 421 1
1326 457 1
1326 531 1
1326 603 1
1326 701 2
1326 828 1
1326 947 1
1326 1070 2
1327 14 1
1327 44 2
1327 160 1
1327 192 1
1327 235 1
1327 256 1
1327 301 1
1327 319 1
1327 326 1
1327 384 1
1327 394 3
1327 414 1
1327 457 1
1327 501 2
1327 528 1
1327 716 1
1327 717 1
1327 838 4
1327 898 1
1327 1038 1
1327 1202 1
1327 1217 1
1328 1 2
1328 10 2
1328 21 1
1328 25 1
1328 39 2
1328 86 1
1328 130 2
1328 139 1
1328 156 1
1328 157 3
1328 167 2
1328 180 1
1328 189 1
1328 254 3
1328 261 1
1328 264 2
1328 269 1
1328 285 1
1328 363 1
1328 379 1
1328 447 1
1328 573 1
1328 602 1
1328 721 1
1329 47 1
1329 80 4
1329 139 1
1329 153 1
1329 158 1
1329 168 1
1329 182 1
1329 186 1
1329 187 1
1329 193 1
1329 233 6
1329 245 1
1329 252 1
1329 281 8
1329 298 8
1329 303 1
1329 306 6
1329 337 3
1329 421 2
1329 434 1
1329 489 1
1329 514 1
1329 576 1
1329 697 11
1330 5 1
1330 64 2
1330 86 1
1330 145 1
1330 168 2
1330 231 1
1330 254 6
1330 283 1
1330 286 1
1330 505 1
1330 639 2
1330 759 1
1330 761 1
1330 825 1
1330 1060 1
1330 1065 1
1330 1175 1
1330 1236 3
1330 1297 3
1331 42 5
1331 75 6
1331 76 1
1331 78 1
1331 135 1
1331 149 1
1331 153 3
1331 157 1
1331 161 1
1331 167 4
1331 179 1
1331 224 2
1331 232 1
1331 256 1
1331 331 4
1331 363 2
1331 393 1
1331 442 2
1331 515 3
1331 549 2
1331 595 6
1331 646 1
1331 980 1
1331 1029 1
1332 25 1
1332 188 4
1332 267 2
1332 306 1
1332 378 4
1332 840 4
1333 70 1
1333 90 1
1333 92 1
1333 109 1
1333 186 1
1333 285 1
1333 287 2
1333 298 1
1333 300 1
1333 302 1
1333 371 1
1333 389 1
1333 445 1
1333 508 1
1333 543 1
1333 602 1
1333 644 2
1333 655 1
1333 685 4
1333 843 1
1333 862 1
1333 1094 1
1333 1250 1
1333 1272 2
1334 15 3
1334 41 1
1334 75 1
1334 99 1
1334 126 2
1334 171 5
1334 187 1
1334 189 1
1334 192 4
1334 195 1
1334 215 1
1334 229 1
1334 280 7
1334 325 1
1334 336 1
1334 410 1
1334 429 4
1334 473 1
1334 474 4
1334 485 1
1334 592 1
1334 936 1
1334 953 2
1334 1186 1
1335 1 1
1335 21 1
1335 29 3
1335 35 2
1335 52 1
1335 64 1
1335 94 1
1335 153 2
1335 188 2
1335 254 1
1335 363 1
1335 378 1
1335 381 1
1335 413 2
1335 443 1
1335 464 1
1335 530 2
1335 543 1
1335 627 1
1335 641 1
1335 834 1
1336 167 2
1336 168 1
1336 195 1
1336 306 2
1336 378 1
1336 460 1
1336 585 1
1336 630 1
1336 1165 1
1337 50 4
1337 70 2
1337 81 4
1337 147 1
1337 171 3
1337 176 1
1337 187 1
1337 208 2
1337 209 1
1337 212 1
1337 286 2
1337 289 1
1337 327 1
1337 332 1
1337 384 1
1337 446 1
1337 484 2
1337 498 1
1337 511 1
1337 514 2
1337 673 1
1337 685 1
1337 744 1
1337 819 1
1337 824 1
1337 833 1
1337 848 1
1337 1046 1
1337 1068 1
1337 1134 2
1338 5 1
1338 8 1
1338 24 1
1338 45 1
1338 75 1
1338 82 1
1338 90 1
1338 110 1
1338 119 1
1338 124 1
1338 134 4
1338 139 1
1338 146 1
1338 150 2
1338 153 1
1338 175 1
1338 218 1
1338 254 1
1338 267 1
1338 278 1
1338 342 1
1338 363 1
1338 493 8
1338 553 1
1338 597 1
1338 636 1
1338 746 1
1338 790 1
1338 831 1
1338 993 1
1338 1276 1
1339 1 1
1339 25 1
1339 27 2
1339 35 1
1339 61 1
1339 86 1
1339 115 2
1339 147 2
1339 150 2
1339 213 1
1339 216 1
1339 226 1
1339 229 1
1339 274 1
1339 382 1
1339 398 1
1339 422 2
1339 477 2
1339 488 1
1339 518 1
1339 589 1
1339 647 1
1339 685 1
1339 712 2
1339 731 1
1339 771 4
1339 831 1
1339 857 3
1339 885 1
1339 945 1
1339 954 1
1339 1084 1
1339 1113 1
1339 1244 1
1339 1264 4
1339 1267 1
1340 1 1
1340 21 2
1340 70 1
1340 80 1
1340 86 1
1340 139 3
1340 157 1
1340 167 3
1340 204 1
1340 238 1
1340 269 2
1340 285 1
1340 299 1
1340 300 1
1340 306 4
1340 334 1
1340 351 1
1340 385 1
1340 573 1
1340 658 3
1340 787 1
1340 848 1
1340 1059 1
1340 1077 4
1340 1079 1
1340 1131 1
1341 5 1
1341 45 1
1341 70 1
1341 86 1
1341 92 1
1341 175 1
1341 254 1
1341 278 1
1341 289 2
1341 307 1
1341 338 1
1341 378 2
1341 419 1
1341 437 3
1341 488 1
1341 627 1
1341 705 1
1341 831 1
1341 917 1
1341 1054 1
1341 1151 1
1342 5 1
1342 15 1
1342 39 1
1342 54 2
1342 139 4
1342 172 3
1342 180 1
1342 186 1
1342 192 2
1342 226 1
1342 269 2
1342 283 2
1342 311 3
1342 313 6
1342 363 4
1342 364 1
1342 414 1
1342 463 3
1342 515 1
1342 571 2
1342 584 3
1342 864 1
1342 940 1
1343 80 2
1343 87 3
1343 116 1
1343 168 1
1343 170 1
1343 171 2
1343 208 1
1343 209 2
1343 210 1
1343 238 2
1343 259 1
1343 294 3
1343 302 1
1343 379 1
1343 661 2
1343 672 2
1343 692 1
1343 697 1
1343 931 1
1343 1043 1
1343 1127 1
1344 21 2
1344 78 1
1344 286 1
1344 305 1
1344 307 1
1344 374 3
1344 376 3
1344 500 3
1344 636 1
1344 641 1
1344 734 1
1344 840 6
1344 966 1
1345 1 1
1345 5 1
1345 35 1
1345 72 8
1345 90 1
1345 141 1
1345 160 1
1345 169 1
1345 187 1
1345 244 1
1345 266 1
1345 286 7
1345 325 1
1345 326 1
1345 386 1
1345 388 1
1345 432 1
1345 530 2
1345 562 1
1345 647 1
1345 721 1
1345 784 1
1345 791 1
1345 940 1
1345 1083 1
1345 1101 1
1345 1226 1
1346 14 1
1346 35 1
1346 82 1
1346 226 1
1346 275 1
1346 630 1
1346 712 1
1346 714 1
1346 777 1
1346 814 1
1346 960 5
1346 1286 1
1347 5 1
1347 35 1
1347 65 1
1347 133 1
1347 153 1
1347 172 2
1347 192 2
1347 215 1
1347 237 2
1347 257 1
1347 272 1
1347 302 1
1347 307 1
1347 311 1
1347 331 1
1347 342 1
1347 364 1
1347 400 1
1347 401 1
1347 489 1
1347 554 1
1347 586 1
1347 589 1
1347 633 2
1347 649 1
1347 808 1
1347 902 1
1347 903 1
1347 1011 1
1347 1109 1
1347 1149 1
1347 1217 1
1348 70 1
1348 75 5
1348 80 1
1348 170 1
1348 171 8
1348 208 1
1348 209 2
1348 210 2
1348 267 1
1348 278 1
1348 294 1
1348 298 3
1348 355 1
1348 383 1
1348 512 2
1348 697 1
1348 991 1
1349 12 1
1349 39 2
1349 45 1
1349 87 1
1349 92 1
1349 116 1
1349 117 1
1349 151 5
1349 190 1
1349 267 1
1349 290 1
1349 306 1
1349 351 1
1349 355 1
1349 372 1
1349 426 1
1349 427 1
1349 541 1
1349 670 1
1349 706 1
1349 734 1
1349 819 1
1350 31 1
1350 41 1
1350 53 1
1350 74 1
1350 99 1
1350 110 1
1350 115 1
1350 119 1
1350 142 1
1350 143 1
1350 163 1
1350 189 1
1350 253 1
1350 260 5
1350 266 2
1350 336 1
1350 356 1
1350 400 1
1350 691 1
1350 743 1
1350 789 1
1350 927 1
1350 1037 1
1350 1104 2
1350 1129 2
1350 1271 1
1351 5 1
1351 10 1
1351 14 1
1351 67 1
1351 81 1
1351 119 1
1351 149 1
1351 158 1
1351 168 1
1351 171 1
1351 175 1
1351 208 1
1351 210 1
1351 229 1
1351 285 2
1351 302 1
1351 317 1
1351 351 1
1351 354 1
1351 446 4
1351 468 1
1351 511 1
1351 528 2
1351 543 1
1351 592 1
1351 596 5
1351 644 1
1351 686 2
1351 705 1
1351 764 2
1351 791 1
1351 792 1
1351 924 1
1351 928 2
1351 1065 1
1351 1277 1
1352 100 1
1352 139 4
1352 153 1
1352 157 2
1352 229 1
1352 252 1
1352 256 1
1352 273 1
1352 306 2
1352 331 1
1352 345 1
1352 530 1
1352 1168 1
1352 1222 1
1353 3 5
1353 5 1
1353 13 3
1353 14 2
1353 15 1
1353 19 1
1353 21 4
1353 82 1
1353 86 2
1353 94 1
1353 139 1
1353 147 5
1353 153 2
1353 175 1
1353 254 1
1353 262 1
1353 386 1
1353 412 4
1353 595 1
1353 614 1
1353 669 3
1353 773 1
1353 843 3
1353 998 1
1353 1083 1
1353 1308 1
1353 1309 1
1354 15 6
1354 34 2
1354 241 1
1354 357 3
1354 375 1
1354 406 1
1354 484 4
1354 489 1
1354 512 1
1354 614 1
1354 653 4
1354 692 1
1354 814 5
1354 875 1
1354 1046 2
1354 1097 1
1355 3 2
1355 39 1
1355 45 2
1355 84 3
1355 112 2
1355 153 1
1355 164 1
1355 257 1
1355 306 1
1355 351 1
1355 355 1
1355 706 3
1355 719 1
1355 759 1
1355 1062 1
1356 5 1
1356 39 1
1356 63 2
1356 146 1
1356 175 1
1356 214 2
1356 245 1
1356 311 1
1356 364 2
1356 389 1
1356 422 2
1356 499 1
1356 562 1
1356 581 1
1356 586 1
1356 630 1
1356 647 3
1356 685 3
1356 686 1
1356 773 1
1356 784 2
1356 973 3
1356 1087 1
1356 1096 3
1356 1101 1
1356 1111 8
1356 1115 1
1356 1154 1
1356 1207 1
1356 1209 1
1356 1227 1
1356 1293 1
1357 9 1
1357 45 1
1357 151 1
1357 188 2
1357 229 1
1357 303 1
1357 371 1
1357 954 2
1358 52 2
1358 67 1
1358 71 1
1358 80 6
1358 90 3
1358 276 1
1358 329 2
1358 348 1
1358 363 1
1358 617 1
1358 658 2
1358 838 1
1358 936 1
1359 42 1
1359 50 2
1359 98 1
1359 99 1
1359 187 1
1359 196 1
1359 227 1
1359 259 1
1359 333 3
1359 474 2
1359 512 1
1359 545 1
1359 618 2
1359 662 1
1359 782 1
1359 786 1
1359 1067 1
1359 1090 2
1360 25 2
1360 27 1
1360 75 2
1360 82 2
1360 86 1
1360 153 1
1360 229 1
1360 257 1
1360 274 1
1360 446 1
1360 463 1
1360 479 1
1360 512 1
1360 697 1
1360 743 2
1360 858 1
1360 977 1
1360 1220 1
1360 1301 1
1361 21 1
1361 29 3
1361 87 3
1361 117 3
1361 182 1
1361 192 3
1361 199 1
1361 203 1
1361 235 1
1361 286 1
1361 304 1
1361 366 1
1361 372 2
1361 468 1
1361 583 1
1361 838 2
1361 942 1
1361 1146 1
1361 1164 2
1361 1290 1
1362 149 1
1362 153 1
1362 226 1
1362 234 2
1362 254 1
1362 267 1
1362 281 1
1362 300 1
1362 302 1
1362 307 4
1362 311 3
1362 312 1
1362 332 1
1362 426 2
1362 598 1
1362 722 1
1362 779 1
1362 1090 2
1362 1215 1
1363 35 1
1363 41 1
1363 139 1
1363 151 2
1363 170 1
1363 174 1
1363 215 1
1363 226 1
1363 278 1
1363 332 2
1363 378 3
1363 412 1
1363 413 1
1363 529 1
1363 533 1
1363 537 1
1363 660 3
1363 713 1
1363 840 2
1363 842 1
1363 978 1
1363 1129 2
1363 1264 1
1364 15 1
1364 19 1
1364 39 1
1364 42 1
1364 47 1
1364 192 1
1364 238 1
1364 497 1
1364 512 1
1364 532 6
1364 660 1
1364 953 1
1364 962 1
1364 1269 1
1365 5 1
1365 11 1
1365 29 1
1365 39 1
1365 50 5
1365 52 1
1365 66 1
1365 82 2
1365 92 2
1365 100 1
1365 183 1
1365 189 1
1365 206 2
1365 216 2
1365 238 1
1365 252 1
1365 257 1
1365 282 2
1365 300 1
1365 307 1
1365 382 3
1365 398 1
1365 468 1
1365 579 2
1365 672 1
1365 693 1
1365 712 1
1365 720 1
1365 908 1
1365 921 9
1365 932 1
1365 940 2
1365 945 2
1365 966 1
1365 985 1
1365 1054 2
1365 1105 1
1365 1137 1
1365 1154 1
1366 29 1
1366 80 2
1366 81 1
1366 88 2
1366 94 1
1366 98 2
1366 127 1
1366 167 10
1366 171 1
1366 192 2
1366 224 1
1366 229 2
1366 234 1
1366 252 1
1366 266 2
1366 296 1
1366 298 6
1366 302 1
1366 363 1
1366 465 1
1366 530 1
1366 581 1
1366 602 1
1366 613 1
1366 660 1
1366 678 1
1366 705 1
1366 742 1
1366 746 1
1366 779 1
1366 804 1
1366 860 1
1366 966 1
1366 1164 1
1366 1173 1
1366 1178 2
1366 1215 1
1366 1315 9
1366 1330 1
1367 5 1
1367 21 1
1367 29 3
1367 88 1
1367 153 3
1367 186 1
1367 245 1
1367 286 1
1367 298 1
1367 410 2
1367 775 2
1367 966 2
1367 1044 2
1368 9 1
1368 24 1
1368 27 1
1368 29 2
1368 35 1
1368 45 2
1368 84 1
1368 117 2
1368 131 1
1368 150 1
1368 152 1
1368 153 2
1368 157 2
1368 169 1
1368 178 1
1368 212 1
1368 237 1
1368 238 1
1368 287 1
1368 306 1
1368 307 1
1368 311 1
1368 364 1
1368 386 1
1368 495 1
1368 614 1
1368 776 1
1368 843 1
1369 5 1
1369 14 1
1369 21 2
1369 26 1
1369 86 1
1369 87 1
1369 102 11
1369 153 6
1369 175 1
1369 187 2
1369 301 1
1369 318 1
1369 385 1
1369 429 1
1369 442 1
1369 474 4
1369 485 4
1369 512 1
1369 531 3
1369 603 1
1369 656 1
1369 691 1
1369 1115 2
1370 25 3
1370 59 1
1370 75 1
1370 112 2
1370 167 2
1370 193 1
1370 244 2
1370 591 1
1370 672 2
1370 933 1
1370 1055 3
1370 1122 1
1370 1197 1
1370 1230 1
1371 27 2
1371 44 1
1371 91 2
1371 151 3
1371 157 1
1371 168 1
1371 178 1
1371 179 4
1371 182 1
1371 189 1
1371 203 2
1371 235 1
1371 243 1
1371 244 6
1371 285 3
1371 305 1
1371 306 1
1371 375 1
1371 378 2
1371 415 1
1371 512 5
1371 532 3
1371 583 1
1371 721 1
1371 725 2
1371 769 1
1371 1017 1
1371 1055 4
1371 1143 1
1371 1186 1
1372 21 2
1372 50 1
1372 70 1
1372 75 2
1372 76 1
1372 116 1
1372 139 1
1372 157 4
1372 167 5
1372 169 1
1372 179 2
1372 274 1
1372 303 1
1372 364 1
1372 377 1
1372 385 5
1372 410 1
1372 454 1
1372 491 1
1372 508 1
1372 633 1
1372 740 1
1372 834 1
1372 996 1
1372 1059 1
1372 1063 1
1372 1219 1
1373 1 2
1373 32 1
1373 50 1
1373 52 1
1373 102 6
1373 157 1
1373 218 1
1373 234 1
1373 263 1
1373 264 2
1373 266 1
1373 286 1
1373 306 2
1373 307 5
1373 336 1
1373 347 1
1373 378 9
1373 386 1
1373 394 1
1373 426 1
1373 437 3
1373 469 1
1373 877 1
1373 958 1
1373 972 1
1374 1 2
1374 43 1
1374 45 1
1374 75 1
1374 86 1
1374 92 1
1374 119 1
1374 139 1
1374 153 1
1374 157 2
1374 161 1
1374 167 12
1374 179 1
1374 189 2
1374 212 1
1374 267 1
1374 315 1
1374 336 1
1374 359 1
1374 385 1
1374 405 4
1374 415 1
1374 442 1
1374 490 1
1374 494 2
1374 584 4
1374 644 1
1374 655 1
1374 707 1
1374 727 1
1374 844 2
1374 1073 1
1374 1115 1
1374 1176 1
1375 15 1
1375 21 2
1375 29 7
1375 66 1
1375 76 1
1375 105 1
1375 153 2
1375 172 2
1375 215 1
1375 232 1
1375 254 4
1375 311 1
1375 321 1
1375 331 4
1375 383 1
1375 393 1
1375 442 1
1375 515 1
1375 530 1
1375 613 1
1375 667 1
1375 718 1
1375 746 1
1375 903 1
1375 1176 1
1375 1217 1
1376 5 2
1376 20 1
1376 21 3
1376 25 4
1376 31 1
1376 50 3
1376 75 3
1376 80 1
1376 101 1
1376 191 3
1376 218 3
1376 232 1
1376 237 1
1376 274 1
1376 309 3
1376 331 3
1376 345 1
1376 359 1
1376 553 3
1376 560 1
1376 706 1
1376 903 1
1376 980 4
1377 1 3
1377 5 4
1377 12 2
1377 29 11
1377 44 1
1377 45 2
1377 75 1
1377 86 2
1377 88 1
1377 91 1
1377 92 1
1377 110 1
1377 126 1
1377 141 1
1377 152 1
1377 154 2
1377 157 1
1377 167 6
1377 183 1
1377 186 1
1377 229 1
1377 254 3
1377 266 1
1377 274 2
1377 298 7
1377 306 1
1377 307 1
1377 334 1
1377 364 1
1377 377 1
1377 378 2
1377 386 1
1377 486 1
1377 522 1
1377 609 2
1377 680 1
1377 727 1
1377 1017 2
1377 1084 1
1377 1217 1
1377 1222 1
1377 1276 1
1378 10 1
1378 70 1
1378 85 3
1378 89 3
1378 120 1
1378 150 1
1378 153 1
1378 170 1
1378 186 1
1378 257 1
1378 286 1
1378 297 1
1378 332 1
1378 390 1
1378 443 1
1378 446 1
1378 488 1
1378 514 2
1378 528 2
1378 537 3
1378 650 1
1378 729 3
1378 782 1
1378 795 2
1378 928 1
1378 999 4
1378 1000 2
1378 1160 1
1378 1305 3
1378 1339 1
1379 5 1
1379 21 2
1379 25 1
1379 41 2
1379 75 5
1379 80 1
1379 119 3
1379 133 1
1379 143 1
1379 150 4
1379 172 1
1379 257 5
1379 301 1
1379 309 1
1379 331 2
1379 442 1
1379 528 4
1379 556 4
1379 646 1
1379 650 1
1379 791 1
1379 795 1
1379 947 1
1379 951 1
1379 969 1
1379 1217 1
1380 21 1
1380 25 1
1380 60 1
1380 75 2
1380 86 1
1380 92 3
1380 122 1
1380 131 1
1380 161 1
1380 167 4
1380 218 1
1380 229 1
1380 237 1
1380 298 1
1380 301 1
1380 309 2
1380 442 1
1380 489 1
1380 530 1
1380 1029 1
1380 1079 1
1380 1210 1
1380 1319 1
1381 1 2
1381 5 1
1381 14 1
1381 25 1
1381 29 1
1381 35 1
1381 45 2
1381 66 1
1381 75 2
1381 88 2
1381 117 1
1381 143 1
1381 150 2
1381 152 1
1381 153 2
1381 156 1
1381 160 1
1381 178 1
1381 191 1
1381 192 1
1381 202 1
1381 210 2
1381 245 1
1381 266 1
1381 298 1
1381 302 1
1381 332 1
1381 336 1
1381 347 1
1381 348 1
1381 379 1
1381 394 1
1381 401 1
1381 415 2
1381 442 1
1381 561 1
1381 635 1
1381 660 1
1381 701 1
1381 904 1
1381 954 1
1381 1143 1
1381 1162 1
1381 1165 1
1381 1194 1
1381 1337 1
1382 5 2
1382 29 1
1382 63 1
1382 82 1
1382 122 1
1382 170 1
1382 187 1
1382 389 4
1382 422 1
1382 425 1
1382 442 1
1382 501 2
1382 506 1
1382 543 2
1382 575 1
1382 602 1
1382 655 1
1382 669 2
1382 705 1
1382 721 1
1382 774 1
1382 830 1
1382 1084 6
1382 1096 1
1382 1111 11
1382 1233 2
1382 1264 1
1382 1314 1
1383 5 1
1383 80 8
1383 109 1
1383 114 1
1383 117 7
1383 139 8
1383 164 1
1383 167 1
1383 172 1
1383 202 1
1383 269 2
1383 270 4
1383 355 1
1383 442 1
1383 543 1
1383 800 7
1383 866 7
1383 877 1
1383 914 1
1384 39 3
1384 172 1
1384 189 1
1384 205 1
1384 211 1
1384 259 1
1384 311 1
1384 327 1
1384 340 1
1384 343 4
1384 515 3
1384 571 2
1384 704 5
1384 781 1
1384 841 1
1385 94 1
1385 153 3
1385 167 8
1385 266 2
1385 274 1
1385 298 2
1385 300 1
1385 302 1
1385 358 2
1385 363 1
1385 378 8
1385 419 1
1385 633 1
1385 1181 1
1386 1 1
1386 20 1
1386 21 1
1386 75 4
1386 86 2
1386 92 1
1386 106 1
1386 122 1
1386 153 2
1386 163 1
1386 219 1
1386 267 2
1386 275 1
1386 442 2
1386 446 2
1386 477 2
1386 506 1
1386 553 1
1386 556 1
1386 647 1
1386 833 1
1386 881 1
1386 888 1
1386 948 1
1386 968 1
1386 1271 1
1387 1 4
1387 92 1
1387 96 1
1387 167 4
1387 192 1
1387 202 1
1387 299 2
1387 306 4
1387 580 1
1387 1006 6
1387 1059 1
1387 1117 1
1388 1 1
1388 21 2
1388 156 2
1388 161 1
1388 167 3
1388 215 1
1388 544 4
1388 580 4
1389 5 1
1389 45 2
1389 75 3
1389 80 1
1389 123 2
1389 138 2
1389 139 2
1389 149 1
1389 154 2
1389 159 1
1389 175 1
1389 192 2
1389 267 1
1389 283 1
1389 285 1
1389 298 5
1389 327 2
1389 351 1
1389 363 1
1389 364 1
1389 381 1
1389 384 4
1389 410 2
1389 421 1
1389 422 1
1389 450 2
1389 539 1
1389 571 2
1389 584 6
1389 617 1
1389 722 1
1389 821 1
1389 822 1
1389 843 3
1389 966 1
1389 1054 2
1390 10 1
1390 81 1
1390 87 1
1390 88 1
1390 135 1
1390 150 2
1390 153 1
1390 186 1
1390 279 1
1390 303 1
1390 354 2
1390 446 8
1390 468 1
1390 559 2
1390 614 1
1390 792 1
1390 831 1
1390 977 1
1390 1276 2
1390 1277 8
1391 11 1
1391 35 1
1391 90 1
1391 256 1
1391 300 1
1391 562 1
1391 589 2
1391 594 2
1391 606 1
1391 613 1
1391 685 13
1391 716 1
1391 721 1
1391 727 2
1391 761 2
1391 831 1
1391 949 1
1391 1007 2
1391 1061 1
1391 1190 1
1391 1232 1
1391 1242 1
1391 1246 1
1391 1262 1
1391 1275 1
1391 1295 1
1392 80 1
1392 93 1
1392 94 1
1392 140 1
1392 148 1
1392 153 3
1392 179 3
1392 186 1
1392 334 1
1392 592 1
1392 831 1
1392 1063 1
1392 1337 1
1393 5 2
1393 45 1
1393 87 2
1393 117 4
1393 175 1
1393 276 1
1393 279 1
1393 332 1
1393 559 2
1393 592 1
1393 627 1
1393 706 1
1393 727 1
1393 1210 1
1393 1252 1
1393 1276 1
1394 5 1
1394 13 2
1394 21 2
1394 45 1
1394 65 1
1394 75 2
1394 95 1
1394 102 1
1394 135 1
1394 153 1
1394 162 1
1394 175 1
1394 183 1
1394 187 6
1394 193 1
1394 230 1
1394 289 1
1394 349 1
1394 371 1
1394 471 6
1394 472 5
1394 592 1
1394 609 1
1394 672 2
1394 700 1
1394 769 1
1394 809 1
1394 876 1
1394 937 1
1394 1087 1
1395 5 4
1395 70 1
1395 80 1
1395 123 8
1395 130 7
1395 168 1
1395 179 1
1395 186 1
1395 289 9
1395 351 1
1395 408 3
1395 592 1
1395 821 9
1395 1078 1
1396 5 1
1396 52 1
1396 75 4
1396 139 6
1396 161 1
1396 167 4
1396 242 1
1396 266 1
1396 294 3
1396 299 1
1396 303 1
1396 352 1
1396 365 1
1396 372 3
1396 950 1
1397 75 2
1397 161 6
1397 167 2
1397 174 1
1397 175 5
1397 186 1
1397 190 1
1397 226 1
1397 285 1
1397 301 1
1397 306 1
1397 405 1
1397 561 1
1397 658 1
1397 772 1
1397 797 1
1398 25 2
1398 29 4
1398 32 1
1398 35 1
1398 56 2
1398 70 1
1398 153 3
1398 158 2
1398 186 1
1398 232 1
1398 267 1
1398 303 1
1398 331 1
1398 378 1
1398 493 1
1398 546 1
1398 582 1
1398 589 1
1398 617 1
1398 722 1
1398 773 3
1398 1030 1
1398 1073 1
1398 1330 1
1399 11 1
1399 24 1
1399 53 1
1399 84 2
1399 117 3
1399 146 4
1399 163 1
1399 171 1
1399 186 1
1399 208 1
1399 209 3
1399 210 2
1399 214 1
1399 443 1
1399 512 1
1399 562 1
1399 645 1
1399 724 1
1399 764 2
1399 792 1
1399 794 3
1399 875 1
1399 1125 4
1400 29 1
1400 52 1
1400 92 1
1400 139 2
1400 157 1
1400 158 1
1400 161 1
1400 167 8
1400 186 1
1400 267 3
1400 299 3
1400 330 1
1400 331 1
1400 352 1
1400 385 1
1400 412 1
1400 415 1
1400 530 1
1400 573 1
1400 787 1
1401 15 1
1401 80 1
1401 117 1
1401 143 1
1401 164 1
1401 170 2
1401 175 1
1401 185 2
1401 186 1
1401 259 1
1401 331 1
1401 444 1
1401 462 1
1401 527 1
1401 592 1
1401 596 1
1401 686 1
1401 711 1
1401 780 2
1401 806 1
1401 1199 1
1402 1 2
1402 46 1
1402 48 1
1402 57 1
1402 67 2
1402 73 1
1402 78 1
1402 80 1
1402 88 4
1402 95 1
1402 102 2
1402 117 1
1402 143 1
1402 153 1
1402 186 1
1402 187 5
1402 213 2
1402 215 1
1402 218 1
1402 246 1
1402 249 1
1402 264 1
1402 285 5
1402 311 1
1402 318 1
1402 321 1
1402 332 1
1402 363 1
1402 393 1
1402 405 1
1402 442 4
1402 443 1
1402 458 3
1402 462 1
1402 471 1
1402 477 1
1402 506 1
1402 511 1
1402 556 1
1402 581 1
1402 598 1
1402 609 1
1402 636 2
1402 652 1
1402 671 1
1402 672 1
1402 814 1
1402 917 1
1402 951 1
1402 956 1
1402 959 1
1402 1054 2
1402 1337 3
1403 21 1
1403 64 1
1403 70 1
1403 80 6
1403 157 1
1403 160 11
1403 170 1
1403 208 1
1403 245 9
1403 273 1
1403 319 1
1403 345 1
1403 347 3
1403 422 1
1403 470 1
1403 534 1
1403 657 1
1403 862 1
1403 1061 1
1403 1111 1
1403 1138 2
1403 1203 1
1404 1 1
1404 5 1
1404 27 3
1404 29 1
1404 35 1
1404 39 3
1404 45 1
1404 66 1
1404 108 2
1404 119 3
1404 157 1
1404 164 1
1404 175 1
1404 190 1
1404 309 1
1404 463 1
1404 495 1
1404 876 1
1404 903 1
1404 1109 1
1405 5 1
1405 62 1
1405 80 3
1405 135 1
1405 141 1
1405 153 1
1405 160 1
1405 172 2
1405 257 1
1405 266 1
1405 311 1
1405 418 4
1405 442 1
1405 521 1
1406 28 2
1406 35 3
1406 102 7
1406 151 2
1406 215 1
1406 217 1
1406 238 2
1406 294 1
1406 303 1
1406 382 1
1406 402 1
1406 481 1
1406 560 1
1406 697 1
1406 724 1
1406 1265 1
1407 45 3
1407 75 4
1407 119 1
1407 141 1
1407 145 1
1407 150 2
1407 153 1
1407 188 3
1407 229 1
1407 252 1
1407 301 1
1407 898 1
1408 35 3
1408 56 2
1408 70 1
1408 80 1
1408 81 1
1408 100 1
1408 110 1
1408 143 1
1408 146 1
1408 150 1
1408 153 1
1408 158 1
1408 173 1
1408 178 1
1408 213 1
1408 225 1
1408 251 1
1408 260 6
1408 279 1
1408 289 3
1408 327 1
1408 335 1
1408 360 2
1408 396 1
1408 405 1
1408 446 2
1408 514 2
1408 601 1
1408 648 1
1408 709 1
1408 741 1
1408 1019 1
1408 1070 1
1408 1072 1
1408 1089 1
1408 1090 1
1408 1235 1
1408 1339 1
1409 1 3
1409 7 1
1409 13 1
1409 25 1
1409 40 2
1409 44 2
1409 70 1
1409 85 2
1409 98 2
1409 100 1
1409 119 1
1409 153 1
1409 214 2
1409 234 1
1409 294 3
1409 319 1
1409 413 1
1409 468 2
1409 514 3
1409 647 10
1409 663 1
1409 672 1
1409 686 1
1409 747 10
1409 753 1
1409 792 1
1409 794 3
1409 952 1
1409 1043 2
1409 1067 1
1409 1070 1
1409 1165 1
1409 1213 1
1409 1305 1
1410 24 1
1410 70 1
1410 71 1
1410 75 2
1410 76 1
1410 80 8
1410 82 2
1410 105 1
1410 120 1
1410 141 1
1410 163 1
1410 188 5
1410 235 1
1410 267 1
1410 320 1
1410 363 2
1410 385 1
1410 421 5
1410 508 1
1410 609 1
1410 636 1
1410 648 1
1410 665 1
1410 797 1
1410 821 1
1410 846 1
1410 858 1
1411 77 1
1411 82 1
1411 95 3
1411 116 10
1411 153 2
1411 168 1
1411 186 1
1411 215 2
1411 259 6
1411 261 1
1411 301 1
1411 326 1
1411 334 1
1411 339 1
1411 357 1
1411 370 5
1411 465 1
1411 484 1
1411 887 1
1411 939 2
1411 1122 1
1411 1272 1
1412 5 1
1412 45 1
1412 149 1
1412 151 1
1412 178 1
1412 203 1
1412 254 1
1412 266 1
1412 300 1
1412 307 4
1412 311 3
1412 325 1
1412 419 1
1412 426 1
1412 592 1
1412 706 1
1412 800 1
1412 917 1
1412 1038 1
1412 1054 1
1412 1090 1
1413 9 1
1413 64 1
1413 94 1
1413 139 4
1413 169 2
1413 238 2
1413 266 1
1413 267 2
1413 278 2
1413 302 1
1413 307 2
1413 453 1
1413 455 1
1413 478 1
1413 746 1
1414 45 1
1414 60 1
1414 108 2
1414 151 2
1414 154 4
1414 183 1
1414 216 1
1414 266 1
1414 278 1
1414 283 1
1414 302 1
1414 328 1
1414 331 1
1414 338 1
1414 381 1
1414 390 2
1414 527 1
1414 686 1
1414 701 1
1414 711 1
1414 1103 1
1414 1164 1
1415 1 2
1415 34 1
1415 73 1
1415 80 1
1415 139 1
1415 189 2
1415 220 1
1415 326 1
1415 329 1
1415 332 1
1415 464 1
1415 527 1
1415 699 1
1415 719 2
1415 966 1
1415 971 2
1416 13 1
1416 46 1
1416 99 1
1416 191 1
1416 196 1
1416 218 1
1416 227 1
1416 252 2
1416 264 3
1416 277 6
1416 302 1
1416 376 1
1416 386 1
1416 412 7
1416 418 1
1416 442 1
1416 462 1
1416 474 1
1416 481 2
1416 485 1
1416 552 1
1416 616 1
1416 618 1
1416 662 1
1416 786 1
1416 788 4
1416 911 4
1416 1090 1
1416 1237 1
1416 1282 2
1417 5 1
1417 15 3
1417 48 1
1417 141 1
1417 153 1
1417 160 1
1417 202 1
1417 231 1
1417 274 1
1417 301 1
1417 314 1
1417 371 1
1417 410 2
1417 489 1
1417 595 1
1417 699 1
1417 797 1
1417 852 1
1417 1065 1
1418 7 1
1418 13 1
1418 16 1
1418 25 2
1418 56 1
1418 79 1
1418 85 1
1418 95 2
1418 179 1
1418 264 1
1418 375 1
1418 379 1
1418 449 13
1418 596 2
1418 645 3
1418 647 1
1418 660 1
1418 747 1
1418 764 1
1418 765 3
1418 770 5
1418 833 2
1418 951 2
1418 1213 1
1418 1282 2
1419 1 3
1419 50 2
1419 70 3
1419 139 1
1419 172 2
1419 254 2
1419 267 7
1419 302 1
1419 489 2
1419 602 1
1419 634 1
1419 670 1
1419 866 4
1419 903 1
1419 971 3
1419 1161 1
1419 1204 1
1420 65 1
1420 139 3
1420 187 1
1420 234 1
1420 283 4
1420 331 1
1420 463 1
1420 584 10
1420 660 10
1420 837 1
1420 853 1
1420 872 2
1420 940 1
1420 1158 1
1421 37 1
1421 75 1
1421 80 1
1421 151 1
1421 154 1
1421 186 1
1421 189 1
1421 203 1
1421 311 1
1421 313 8
1421 336 1
1421 340 2
1421 345 1
1421 372 1
1421 376 1
1421 470 1
1421 500 1
1421 561 8
1421 564 1
1421 582 1
1421 804 1
1421 1102 2
1421 1133 1
1422 71 2
1422 82 1
1422 156 2
1422 188 1
1422 191 3
1422 192 2
1422 245 1
1422 273 1
1422 301 1
1422 347 1
1422 518 1
1422 528 1
1422 711 3
1422 820 1
1422 953 1
1422 1052 3
1422 1118 2
1422 1180 1
1422 1252 1
1423 5 1
1423 9 2
1423 20 1
1423 21 1
1423 75 1
1423 81 1
1423 119 1
1423 125 1
1423 146 2
1423 149 2
1423 169 1
1423 175 2
1423 191 1
1423 258 1
1423 260 4
1423 265 1
1423 282 1
1423 301 1
1423 320 1
1423 336 1
1423 338 1
1423 363 1
1423 412 3
1423 422 1
1423 428 1
1423 470 1
1423 642 1
1423 660 1
1423 799 1
1423 1006 1
1423 1065 1
1423 1231 1
1424 47 1
1424 50 1
1424 58 1
1424 74 1
1424 116 1
1424 175 1
1424 205 1
1424 215 1
1424 257 1
1424 285 1
1424 412 1
1424 460 2
1424 471 1
1424 473 1
1424 484 1
1424 552 2
1424 610 2
1424 642 1
1424 654 1
1424 677 1
1424 719 1
1424 747 1
1424 796 1
1424 895 1
1424 1046 1
1425 5 1
1425 29 1
1425 99 6
1425 149 1
1425 153 1
1425 156 2
1425 229 1
1425 246 1
1425 251 3
1425 302 1
1425 319 1
1425 347 1
1425 386 2
1425 413 1
1425 452 1
1425 530 2
1425 552 2
1425 562 1
1425 655 1
1425 685 1
1425 769 1
1425 804 1
1425 822 1
1425 932 1
1425 966 2
1425 1084 1
1426 1 1
1426 3 1
1426 32 1
1426 52 1
1426 84 3
1426 93 1
1426 94 1
1426 167 2
1426 267 1
1426 291 1
1426 306 1
1426 327 1
1426 426 1
1426 442 1
1426 582 1
1426 595 1
1426 655 2
1426 658 3
1426 691 1
1426 722 1
1426 893 1
1426 904 1
1427 7 1
1427 10 1
1427 21 1
1427 35 2
1427 75 2
1427 85 1
1427 87 1
1427 142 2
1427 155 1
1427 260 2
1427 553 1
1427 572 3
1427 660 1
1427 697 1
1427 792 1
1427 794 2
1428 41 3
1428 45 1
1428 153 1
1428 162 1
1428 216 1
1428 273 1
1428 419 4
1428 442 1
1428 512 1
1428 609 2
1428 644 2
1428 660 1
1428 743 1
1428 786 1
1428 810 2
1428 1071 2
1428 1237 2
1429 5 1
1429 23 1
1429 119 1
1429 287 1
1429 322 1
1429 325 1
1429 341 1
1429 375 1
1429 418 1
1429 442 1
1429 644 3
1429 697 1
1429 743 1
1429 776 1
1429 1043 1
1429 1069 2
1429 1237 2
1430 47 2
1430 80 1
1430 92 2
1430 153 1
1430 249 5
1430 257 2
1430 283 1
1430 336 1
1430 349 1
1430 388 1
1430 404 1
1430 412 3
1430 473 4
1430 583 1
1430 607 3
1430 609 1
1430 621 3
1430 660 1
1430 699 1
1431 10 3
1431 13 2
1431 25 1
1431 27 1
1431 85 1
1431 115 1
1431 117 1
1431 146 5
1431 150 1
1431 257 2
1431 360 1
1431 423 1
1431 448 1
1431 647 1
1431 673 1
1431 683 1
1431 697 1
1431 709 1
1431 775 1
1431 776 1
1431 789 1
1431 817 1
1431 818 2
1431 833 1
1431 1054 1
1431 1076 1
1431 1125 2
1431 1126 4
1431 1185 1
1431 1242 1
1431 1258 1
1431 1288 1
1432 1 1
1432 41 2
1432 42 3
1432 65 2
1432 153 1
1432 164 1
1432 169 1
1432 187 1
1432 189 1
1432 218 1
1432 221 1
1432 231 2
1432 240 1
1432 259 1
1432 302 1
1432 312 1
1432 331 1
1432 342 1
1432 429 1
1432 450 4
1432 456 1
1432 471 1
1432 472 1
1432 543 1
1432 581 1
1432 651 1
1432 692 1
1432 694 1
1432 903 1
1432 932 2
1432 1021 1
1432 1157 4
1432 1216 5
1432 1247 1
1432 1303 3
1432 1330 1
1433 29 3
1433 35 6
1433 43 1
1433 66 1
1433 117 1
1433 167 6
1433 377 1
1433 388 1
1433 627 1
1433 840 3
1433 973 1
1433 1228 1
1434 9 2
1434 30 1
1434 56 1
1434 81 2
1434 88 1
1434 98 1
1434 112 1
1434 117 2
1434 153 1
1434 187 1
1434 191 1
1434 212 1
1434 214 1
1434 241 1
1434 244 1
1434 258 1
1434 264 1
1434 268 1
1434 277 2
1434 381 1
1434 412 1
1434 428 1
1434 444 1
1434 470 1
1434 471 1
1434 511 1
1434 517 1
1434 559 1
1434 563 1
1434 612 1
1434 645 1
1434 708 2
1434 844 1
1434 924 1
1434 925 1
1434 989 1
1434 1053 1
1434 1065 1
1434 1231 1
1434 1247 1
1434 1255 1
1435 5 2
1435 41 1
1435 45 1
1435 75 1
1435 80 1
1435 86 4
1435 145 1
1435 152 1
1435 153 1
1435 274 1
1435 286 1
1435 303 1
1435 313 4
1435 327 1
1435 332 2
1435 359 1
1435 410 1
1435 415 1
1435 418 1
1435 471 2
1435 554 1
1435 670 1
1435 758 1
1435 779 1
1435 843 1
1436 1 1
1436 7 1
1436 10 2
1436 21 1
1436 25 1
1436 27 1
1436 45 1
1436 70 1
1436 81 1
1436 84 2
1436 86 2
1436 94 1
1436 153 5
1436 158 2
1436 218 2
1436 233 1
1436 523 1
1436 580 3
1436 1170 1
1436 1323 1
1437 25 1
1437 35 4
1437 63 2
1437 74 1
1437 221 1
1437 243 2
1437 405 1
1437 460 1
1437 474 3
1437 589 1
1437 635 1
1437 653 1
1437 654 2
1437 712 1
1437 847 1
1437 885 1
1437 1007 5
1437 1101 2
1437 1201 1
1437 1253 1
1437 1263 1
1437 1264 6
1437 1270 3
1438 80 4
1438 88 2
1438 157 1
1438 167 3
1438 179 1
1438 234 1
1438 238 1
1438 267 1
1438 269 3
1438 270 8
1438 281 1
1438 306 1
1438 426 1
1438 543 1
1438 735 1
1438 985 1
1438 995 7
1438 1162 1
1439 11 1
1439 41 1
1439 45 1
1439 65 1
1439 70 1
1439 75 1
1439 167 2
1439 172 5
1439 208 1
1439 286 1
1439 298 1
1439 306 2
1439 311 4
1439 351 1
1439 389 1
1439 407 1
1439 422 1
1439 442 1
1439 530 1
1439 706 3
1439 736 1
1439 876 1
1439 1011 1
1440 92 1
1440 141 1
1440 157 1
1440 178 1
1440 236 2
1440 298 3
1440 323 1
1440 331 3
1440 393 1
1440 434 1
1440 913 4
1440 981 1
1440 1073 1
1441 27 1
1441 47 1
1441 119 1
1441 156 1
1441 188 1
1441 215 1
1441 266 2
1441 301 1
1441 327 1
1441 445 1
1441 471 1
1441 498 1
1441 574 1
1441 584 1
1441 595 1
1441 836 1
1441 852 1
1441 1022 1
1441 1105 1
1441 1177 3
1442 9 1
1442 13 1
1442 28 1
1442 87 2
1442 100 1
1442 150 2
1442 153 1
1442 164 1
1442 170 1
1442 259 1
1442 262 1
1442 264 1
1442 271 1
1442 288 1
1442 350 1
1442 382 1
1442 403 1
1442 477 1
1442 481 1
1442 513 1
1442 548 2
1442 596 1
1442 638 1
1442 647 1
1442 685 3
1442 705 1
1442 712 1
1442 721 1
1442 853 1
1442 857 1
1442 864 1
1442 945 2
1442 954 1
1442 983 1
1442 992 1
1442 994 1
1442 1054 2
1442 1096 1
1442 1173 1
1442 1216 1
1442 1265 4
1442 1322 1
1443 1 2
1443 21 1
1443 24 1
1443 27 1
1443 28 1
1443 45 2
1443 84 1
1443 88 2
1443 105 1
1443 117 1
1443 143 4
1443 150 1
1443 151 1
1443 153 1
1443 167 5
1443 257 2
1443 261 1
1443 266 3
1443 267 1
1443 294 2
1443 363 1
1443 379 1
1443 442 1
1443 502 1
1443 606 1
1443 613 1
1443 652 1
1443 655 1
1443 660 4
1443 675 1
1443 752 1
1443 817 1
1443 908 2
1443 947 1
1443 1019 1
1443 1054 1
1443 1087 1
1443 1107 1
1444 3 2
1444 29 1
1444 72 1
1444 90 4
1444 283 1
1444 333 1
1444 359 2
1444 534 2
1444 673 2
1444 946 1
1444 1132 1
1444 1140 8
1444 1145 1
1444 1172 1
1445 15 2
1445 41 1
1445 47 1
1445 116 1
1445 171 3
1445 175 1
1445 189 1
1445 252 1
1445 280 3
1445 332 1
1445 412 1
1445 429 1
1445 474 6
1445 478 1
1445 484 1
1445 487 2
1445 489 1
1445 809 1
1445 875 1
1445 953 1
1445 1186 1
1446 1 3
1446 2 5
1446 29 2
1446 39 1
1446 40 2
1446 65 5
1446 79 1
1446 87 1
1446 254 1
1446 302 1
1446 326 1
1446 375 1
1446 378 5
1446 512 1
1446 530 1
1446 579 1
1446 581 1
1446 613 1
1446 653 1
1446 660 3
1446 772 1
1446 1083 1
1447 77 1
1447 80 8
1447 83 3
1447 180 1
1447 192 1
1447 215 1
1447 256 1
1447 274 1
1447 285 5
1447 363 1
1447 364 9
1447 415 1
1447 542 1
1447 616 8
1447 821 1
1447 1087 1
1447 1099 1
1447 1307 1
1448 25 1
1448 35 3
1448 82 1
1448 85 1
1448 90 1
1448 146 1
1448 153 1
1448 226 2
1448 257 2
1448 286 1
1448 325 1
1448 446 1
1448 456 1
1448 487 1
1448 527 1
1448 528 1
1448 597 1
1448 617 1
1448 619 1
1448 647 2
1448 649 1
1448 705 1
1448 717 1
1448 749 2
1448 846 1
1448 862 2
1448 900 1
1448 971 1
1448 1124 1
1448 1304 1
1448 1340 1
1449 10 1
1449 19 1
1449 70 7
1449 75 1
1449 156 2
1449 167 1
1449 192 3
1449 215 2
1449 218 2
1449 298 1
1449 349 1
1449 366 1
1449 443 1
1449 446 4
1449 465 1
1449 512 1
1449 530 1
1449 777 3
1449 1075 1
1449 1155 2
1450 64 1
1450 80 6
1450 139 6
1450 160 1
1450 172 2
1450 173 1
1450 186 1
1450 201 1
1450 238 2
1450 267 1
1450 286 3
1450 342 1
1450 415 1
1450 422 1
1450 567 1
1450 800 1
1450 821 5
1450 966 1
1450 971 1
1450 1169 1
1451 13 1
1451 19 1
1451 27 4
1451 65 2
1451 75 2
1451 81 1
1451 202 1
1451 218 1
1451 304 1
1451 336 1
1451 506 1
1451 531 1
1451 568 1
1451 637 4
1451 655 1
1451 816 1
1451 817 1
1451 818 4
1451 947 1
1451 1147 1
1451 1186 1
1452 15 2
1452 39 1
1452 52 1
1452 64 1
1452 80 1
1452 114 1
1452 139 4
1452 172 1
1452 189 1
1452 203 1
1452 305 3
1452 310 1
1452 313 3
1452 342 1
1452 421 1
1452 426 1
1452 471 2
1452 566 2
1452 590 1
1452 652 2
1452 821 2
1452 892 1
1453 80 2
1453 151 1
1453 259 2
1453 264 4
1453 275 1
1453 332 1
1453 340 1
1453 345 1
1453 359 1
1453 435 1
1453 511 2
1453 566 1
1453 628 1
1453 744 1
1453 802 4
1453 1064 1
1453 1082 1
1453 1230 1
1454 66 1
1454 82 1
1454 85 1
1454 95 3
1454 132 1
1454 138 1
1454 160 1
1454 161 2
1454 185 1
1454 215 1
1454 230 2
1454 240 1
1454 252 1
1454 257 1
1454 267 2
1454 318 2
1454 336 1
1454 339 1
1454 340 1
1454 382 1
1454 410 4
1454 443 1
1454 505 2
1454 530 1
1454 542 1
1454 543 1
1454 604 1
1454 653 3
1454 672 1
1454 836 2
1454 998 2
1454 1174 1
1454 1204 1
1455 34 2
1455 95 2
1455 99 2
1455 188 2
1455 230 3
1455 241 1
1455 257 5
1455 280 1
1455 412 2
1455 484 2
1455 552 1
1455 719 1
1455 743 2
1455 815 2
1455 1003 1
1456 11 1
1456 21 1
1456 39 2
1456 45 1
1456 75 4
1456 88 2
1456 165 1
1456 235 1
1456 254 1
1456 312 1
1456 365 1
1456 369 1
1456 401 1
1456 481 1
1456 530 1
1456 581 1
1456 711 1
1456 902 2
1456 1179 2
1457 1 1
1457 44 1
1457 80 1
1457 139 1
1457 141 1
1457 153 1
1457 157 1
1457 175 1
1457 192 1
1457 212 1
1457 253 2
1457 313 5
1457 332 1
1457 415 1
1457 500 1
1457 536 2
1457 565 1
1457 572 1
1457 800 1
1457 1183 5
1457 1218 2
1457 1228 1
1457 1299 8
1457 1327 1
1457 1328 4
1457 1329 1
1457 1330 1
1457 1341 4
1458 75 1
1458 182 1
1458 187 2
1458 188 3
1458 191 1
1458 203 1
1458 234 1
1458 250 1
1458 263 1
1458 281 1
1458 331 1
1458 340 1
1458 352 1
1458 372 1
1458 499 1
1458 697 1
1458 711 4
1458 803 1
1458 840 2
1459 47 1
1459 50 3
1459 95 3
1459 100 1
1459 101 1
1459 125 5
1459 175 1
1459 191 1
1459 193 1
1459 216 2
1459 218 2
1459 219 1
1459 223 2
1459 273 1
1459 288 1
1459 477 1
1459 522 1
1459 556 1
1459 595 3
1459 660 2
1459 672 1
1459 734 3
1459 736 1
1459 954 1
1459 968 2
1459 970 1
1459 1011 2
1459 1046 1
1459 1121 2
1460 21 1
1460 90 8
1460 178 1
1460 214 1
1460 254 1
1460 286 1
1460 364 2
1460 442 1
1460 622 1
1460 685 5
1460 712 1
1460 906 1
1460 1015 1
1460 1038 1
1460 1065 2
1460 1192 1
1460 1288 1
1460 1318 1
1460 1320 8
1460 1326 1
1460 1336 6
1461 5 1
1461 21 1
1461 25 3
1461 31 1
1461 45 2
1461 75 1
1461 150 1
1461 153 2
1461 172 1
1461 176 1
1461 213 1
1461 311 1
1461 331 4
1461 441 4
1461 442 1
1461 530 1
1461 553 1
1461 554 1
1461 556 2
1461 614 1
1461 707 1
1461 903 1
1461 1162 1
1462 5 1
1462 41 1
1462 52 1
1462 158 2
1462 189 2
1462 236 1
1462 300 1
1462 306 3
1462 335 1
1462 374 7
1462 413 1
1462 800 1
1462 920 2
1463 21 4
1463 45 1
1463 50 1
1463 56 2
1463 75 1
1463 91 2
1463 117 1
1463 135 1
1463 150 1
1463 153 6
1463 156 1
1463 167 4
1463 179 3
1463 193 1
1463 254 1
1463 301 2
1463 307 3
1463 351 1
1463 358 1
1463 363 2
1463 377 2
1463 385 1
1463 454 1
1463 655 1
1463 670 1
1464 75 1
1464 179 2
1464 358 2
1464 627 3
1465 1 1
1465 21 1
1465 25 1
1465 44 1
1465 46 1
1465 75 1
1465 84 3
1465 87 5
1465 94 6
1465 119 2
1465 124 1
1465 150 1
1465 157 3
1465 167 7
1465 238 1
1465 254 1
1465 259 1
1465 287 1
1465 299 1
1465 304 2
1465 306 4
1465 309 2
1465 336 1
1465 392 1
1465 426 1
1465 471 1
1465 505 1
1465 507 1
1465 528 1
1465 548 1
1465 553 1
1465 705 1
1465 709 1
1465 721 1
1465 833 1
1466 45 1
1466 64 1
1466 70 1
1466 80 9
1466 123 2
1466 169 1
1466 229 2
1466 235 1
1466 285 1
1466 298 3
1466 306 3
1466 336 2
1466 424 1
1466 566 1
1466 584 2
1466 695 2
1466 759 1
1466 808 1
1466 821 7
1466 934 1
1467 45 1
1467 64 1
1467 109 1
1467 116 1
1467 148 1
1467 153 1
1467 154 1
1467 174 1
1467 175 2
1467 215 2
1467 240 1
1467 281 1
1467 345 1
1467 526 1
1467 711 1
1467 777 1
1467 1042 1
1467 1179 1
1467 1292 1
1467 1300 1
1468 41 1
1468 49 3
1468 50 3
1468 90 1
1468 171 1
1468 179 1
1468 257 3
1468 279 1
1468 285 2
1468 419 3
1468 477 1
1468 599 1
1468 607 3
1468 675 5
1468 685 1
1468 697 1
1468 810 1
1468 875 1
1468 938 2
1468 953 1
1468 1007 1
1468 1011 2
1468 1046 1
1468 1068 6
1468 1121 2
1468 1272 1
1468 1274 3
1468 1301 1
1469 24 4
1469 100 1
1469 143 2
1469 191 1
1469 217 1
1469 229 1
1469 252 1
1469 260 2
1469 279 3
1469 285 2
1469 303 2
1469 319 1
1469 332 1
1469 342 1
1469 363 1
1469 512 1
1469 697 2
1469 766 2
1469 792 1
1469 794 2
1469 1278 5
1469 1315 3
1470 25 1
1470 27 1
1470 29 1
1470 65 1
1470 82 1
1470 85 3
1470 91 1
1470 95 2
1470 164 1
1470 223 1
1470 257 2
1470 277 1
1470 281 1
1470 301 1
1470 302 1
1470 442 1
1470 528 1
1470 530 1
1470 562 1
1470 609 1
1470 663 1
1470 692 3
1470 921 2
1470 984 2
1470 1165 1
1470 1177 2
1470 1205 1
1470 1256 2
1471 75 1
1471 188 6
1471 214 2
1471 234 1
1471 286 1
1471 463 1
1471 711 1
1471 737 1
1471 940 1
1471 950 1
1471 973 1
1471 1061 1
1471 1112 1
1471 1215 1
1472 1 1
1472 45 1
1472 75 3
1472 86 1
1472 167 2
1472 176 2
1472 177 1
1472 185 1
1472 186 1
1472 187 1
1472 215 1
1472 216 1
1472 267 2
1472 281 3
1472 285 1
1472 302 1
1472 303 3
1472 321 1
1472 336 1
1472 363 1
1472 412 1
1472 422 1
1472 576 1
1472 581 1
1472 602 1
1472 614 1
1472 636 1
1472 671 1
1472 804 1
1472 957 2
1473 1 1
1473 5 1
1473 40 1
1473 70 1
1473 104 1
1473 110 1
1473 139 5
1473 151 1
1473 170 1
1473 178 1
1473 191 1
1473 216 1
1473 229 1
1473 238 1
1473 252 1
1473 286 1
1473 349 1
1473 362 1
1473 364 2
1473 383 1
1473 418 1
1473 442 1
1473 528 1
1473 595 2
1473 648 1
1473 719 1
1473 742 1
1473 797 1
1473 828 3
1473 839 2
1473 1074 1
1473 1112 5
1473 1164 2
1473 1222 1
1474 44 1
1474 76 1
1474 98 1
1474 105 1
1474 123 4
1474 143 1
1474 168 1
1474 178 1
1474 203 1
1474 213 1
1474 232 1
1474 234 5
1474 254 1
1474 319 1
1474 372 1
1474 540 1
1474 625 1
1474 839 1
1474 907 1
1474 918 1
1474 1330 1
1475 73 1
1475 79 1
1475 87 1
1475 99 1
1475 169 1
1475 170 1
1475 171 2
1475 208 2
1475 209 1
1475 210 1
1475 300 1
1475 305 2
1475 366 1
1475 513 2
1475 594 4
1475 606 1
1475 613 2
1475 657 1
1475 685 12
1475 688 1
1475 697 2
1475 864 1
1475 875 1
1475 889 1
1475 1065 1
1475 1113 4
1475 1253 3
1475 1267 3
1475 1313 2
1476 21 2
1476 95 1
1476 102 1
1476 117 1
1476 139 1
1476 151 1
1476 157 2
1476 161 1
1476 163 1
1476 167 1
1476 171 1
1476 189 1
1476 202 1
1476 254 1
1476 264 1
1476 267 3
1476 301 1
1476 412 3
1476 465 1
1476 530 1
1476 573 2
1476 581 1
1476 658 1
1476 664 1
1476 725 1
1476 797 2
1476 957 1
1476 1065 1
1477 142 3
1477 171 1
1477 185 4
1477 230 1
1477 259 7
1477 302 1
1477 336 4
1477 388 1
1477 410 1
1477 412 1
1477 425 1
1477 443 1
1477 457 1
1477 472 1
1477 481 1
1477 635 1
1477 678 2
1477 699 2
1477 744 6
1477 801 1
1477 806 1
1477 944 1
1477 1103 1
1477 1271 1
1478 25 2
1478 29 1
1478 45 1
1478 70 1
1478 115 1
1478 117 1
1478 139 1
1478 167 1
1478 189 3
1478 252 1
1478 257 1
1478 281 1
1478 306 4
1478 325 1
1478 344 1
1478 353 1
1478 385 2
1478 442 1
1478 542 1
1478 691 3
1478 804 1
1478 957 1
1478 1146 1
1478 1313 1
1479 5 2
1479 78 1
1479 88 6
1479 153 2
1479 170 5
1479 172 4
1479 264 2
1479 274 1
1479 345 1
1479 357 1
1479 375 1
1479 412 1
1479 418 2
1479 441 3
1479 442 1
1479 447 1
1479 471 1
1479 554 3
1479 725 2
1480 3 1
1480 29 8
1480 66 1
1480 80 3
1480 88 3
1480 154 3
1480 172 1
1480 238 3
1480 277 1
1480 331 1
1480 372 1
1480 382 1
1480 419 3
1480 420 1
1480 457 1
1480 530 3
1480 571 2
1480 625 1
1480 641 2
1480 940 2
1480 962 3
1481 28 5
1481 44 1
1481 45 1
1481 64 1
1481 71 1
1481 75 1
1481 80 1
1481 94 1
1481 100 1
1481 105 5
1481 126 1
1481 179 1
1481 183 1
1481 186 2
1481 205 1
1481 210 1
1481 244 2
1481 259 1
1481 277 10
1481 287 1
1481 306 1
1481 347 1
1481 359 1
1481 372 1
1481 484 1
1481 505 1
1481 545 1
1481 665 1
1481 673 1
1481 895 1
1481 951 1
1481 968 3
1481 1160 1
1482 28 5
1482 56 1
1482 158 1
1482 173 1
1482 183 2
1482 186 1
1482 191 1
1482 238 1
1482 346 1
1482 419 2
1482 628 3
1482 696 1
1482 724 1
1482 782 1
1482 798 1
1482 889 1
1482 941 1
1482 1005 1
1482 1100 1
1482 1228 1
1483 59 1
1483 76 1
1483 109 1
1483 112 1
1483 143 1
1483 172 9
1483 189 1
1483 215 1
1483 216 1
1483 266 1
1483 295 1
1483 338 1
1483 581 1
1483 674 1
1483 754 1
1483 821 1
1483 1167 1
1484 5 1
1484 7 2
1484 21 3
1484 53 1
1484 79 1
1484 80 1
1484 102 1
1484 110 1
1484 139 1
1484 158 1
1484 260 3
1484 264 2
1484 289 2
1484 353 1
1484 414 1
1484 448 1
1484 504 1
1484 511 2
1484 514 1
1484 619 1
1484 816 4
1484 1071 4
1485 14 1
1485 86 1
1485 95 1
1485 139 1
1485 167 4
1485 189 3
1485 284 1
1485 291 1
1485 299 1
1485 341 1
1485 393 1
1485 412 1
1485 415 1
1485 471 1
1485 489 2
1485 544 1
1485 581 1
1485 614 1
1485 670 1
1485 691 1
1485 951 1
1485 1168 1
1485 1210 1
1486 10 1
1486 11 1
1486 27 1
1486 45 1
1486 153 2
1486 171 1
1486 178 1
1486 186 1
1486 249 1
1486 277 2
1486 286 5
1486 335 1
1486 360 1
1486 381 1
1486 446 2
1486 465 1
1486 512 1
1486 528 1
1486 544 5
1486 652 1
1486 685 1
1486 862 1
1486 924 1
1486 925 1
1486 929 1
1486 1065 1
1487 75 2
1487 86 1
1487 153 1
1487 164 1
1487 186 1
1487 266 2
1487 336 1
1487 351 1
1487 358 2
1487 378 2
1487 419 1
1487 442 1
1487 463 1
1487 530 1
1487 627 3
1487 711 1
1487 791 1
1487 841 1
1487 1017 2
1488 14 1
1488 32 3
1488 91 1
1488 105 2
1488 127 1
1488 157 2
1488 172 1
1488 187 1
1488 234 2
1488 245 4
1488 252 3
1488 254 1
1488 283 1
1488 286 1
1488 306 1
1488 311 1
1488 331 1
1488 355 1
1488 364 1
1488 452 1
1488 713 1
1488 890 2
1488 1215 1
1488 1222 1
1489 21 1
1489 45 2
1489 50 1
1489 88 1
1489 125 2
1489 169 1
1489 301 1
1489 315 1
1489 319 1
1489 332 1
1489 655 1
1489 672 2
1490 13 1
1490 16 1
1490 21 2
1490 25 6
1490 27 1
1490 29 1
1490 40 1
1490 67 1
1490 86 1
1490 87 1
1490 113 1
1490 178 1
1490 179 1
1490 186 1
1490 303 1
1490 336 1
1490 344 1
1490 381 1
1490 384 2
1490 442 1
1490 463 1
1490 482 1
1490 528 1
1490 602 1
1490 763 1
1490 789 2
1490 876 1
1490 1048 4
1490 1175 4
1490 1255 2
1491 10 2
1491 35 1
1491 87 4
1491 88 1
1491 117 2
1491 146 6
1491 153 1
1491 154 2
1491 170 1
1491 186 2
1491 260 1
1491 311 3
1491 446 3
1491 528 3
1491 559 5
1491 650 2
1491 743 1
1491 764 1
1491 775 1
1491 792 1
1491 794 4
1491 982 1
1491 1043 1
1491 1126 2
1492 168 1
1492 172 1
1492 335 2
1492 442 1
1492 460 1
1492 537 1
1492 1184 1
1492 1255 1
1493 80 9
1493 105 1
1493 114 1
1493 139 5
1493 214 1
1493 285 1
1493 305 2
1493 335 1
1493 363 4
1493 407 4
1493 424 1
1493 535 2
1493 584 3
1493 592 1
1493 920 1
1493 1120 1
1494 1 6
1494 3 2
1494 32 1
1494 86 1
1494 88 1
1494 139 1
1494 161 2
1494 167 3
1494 205 1
1494 299 1
1494 331 1
1494 412 5
1494 471 1
1494 544 6
1494 573 2
1494 844 1
1494 971 2
1494 1321 1
1495 34 5
1495 76 2
1495 95 1
1495 153 1
1495 171 1
1495 179 1
1495 187 2
1495 274 2
1495 410 1
1495 471 2
1495 477 2
1495 522 3
1495 532 1
1495 554 1
1495 604 1
1495 618 2
1495 649 1
1495 662 1
1495 699 2
1495 770 1
1495 810 2
1495 814 1
1495 869 1
1495 953 1
1495 974 1
1495 1046 2
1495 1093 1
1495 1131 1
1495 1177 1
1495 1237 1
1495 1238 1
1495 1250 1
1495 1261 1
1496 7 2
1496 10 1
1496 85 1
1496 86 1
1496 87 1
1496 117 1
1496 142 1
1496 225 1
1496 279 1
1496 378 2
1496 381 1
1496 441 1
1496 460 1
1496 488 1
1496 531 1
1496 559 2
1496 572 4
1496 599 1
1496 624 1
1496 768 1
1496 794 1
1496 811 2
1496 839 1
1496 845 1
1496 912 2
1496 915 2
1496 1050 1
1496 1051 1
1496 1054 1
1496 1163 2
1497 47 1
1497 93 1
1497 105 1
1497 109 2
1497 134 4
1497 147 2
1497 179 1
1497 183 1
1497 187 1
1497 216 1
1497 285 1
1497 331 1
1497 397 1
1497 398 1
1497 422 1
1497 537 1
1497 579 1
1497 589 1
1497 685 1
1497 723 1
1497 758 1
1497 822 1
1497 866 1
1498 5 1
1498 10 1
1498 45 2
1498 80 8
1498 82 4
1498 105 1
1498 112 2
1498 120 1
1498 131 1
1498 139 1
1498 142 2
1498 150 1
1498 151 2
1498 153 1
1498 154 1
1498 155 1
1498 195 2
1498 219 1
1498 238 1
1498 254 4
1498 274 1
1498 283 2
1498 307 1
1498 320 1
1498 334 1
1498 347 1
1498 348 2
1498 378 1
1498 381 1
1498 382 1
1498 421 2
1498 422 1
1498 453 1
1498 455 1
1498 512 3
1498 553 1
1498 556 1
1498 583 1
1498 639 1
1498 686 2
1498 694 1
1498 814 3
1498 947 1
1498 971 1
1498 991 1
1498 993 2
1499 82 1
1499 95 4
1499 103 2
1499 126 1
1499 185 1
1499 231 1
1499 304 4
1499 442 2
1499 532 1
1499 614 1
1499 661 8
1499 692 2
1499 793 1
1499 806 5
1499 921 1
1499 1039 1
1499 1131 1
1499 1212 2
1499 1228 1
1499 1296 1
1500 76 1
1500 185 1
1500 192 1
1500 199 3
1500 206 2
1500 270 1
1500 285 1
1500 319 1
1500 334 4
1500 372 3
1500 419 1
1500 558 1
1500 588 1
1500 630 3
1500 1204 3
1501 2 1
1501 13 1
1501 18 1
1501 72 2
1501 79 1
1501 87 1
1501 170 1
1501 186 1
1501 214 1
1501 254 1
1501 298 2
1501 364 2
1501 378 2
1501 499 1
1501 528 2
1501 686 1
1501 746 1
1501 862 1
1501 1017 1
1501 1164 3
1501 1223 1
1501 1224 1
1501 1264 3
1502 16 1
1502 35 3
1502 41 1
1502 49 1
1502 63 1
1502 115 1
1502 226 2
1502 474 1
1502 488 1
1502 660 2
1502 678 1
1502 685 3
1502 710 1
1502 712 2
1502 764 1
1502 853 2
1502 867 1
1502 1016 1
1502 1036 1
1502 1062 1
1502 1108 1
1502 1208 4
1502 1223 1
1502 1232 1
1502 1242 1
1502 1244 1
1502 1250 1
1502 1251 2
1502 1300 1
1502 1307 1
1502 1320 2
1503 21 1
1503 50 1
1503 53 3
1503 60 1
1503 103 1
1503 119 1
1503 131 1
1503 147 6
1503 150 1
1503 153 1
1503 185 5
1503 192 1
1503 213 1
1503 238 1
1503 243 1
1503 259 2
1503 277 1
1503 338 2
1503 363 1
1503 389 1
1503 414 1
1503 567 2
1503 635 1
1503 652 1
1503 685 4
1503 697 1
1503 787 1
1503 847 2
1503 945 2
1503 1074 1
1503 1312 2
1504 5 1
1504 9 2
1504 53 1
1504 80 1
1504 90 1
1504 91 1
1504 146 11
1504 149 1
1504 153 1
1504 175 3
1504 243 1
1504 258 1
1504 260 2
1504 261 1
1504 271 1
1504 274 1
1504 338 1
1504 388 1
1504 401 1
1504 429 1
1504 470 2
1504 515 1
1504 517 1
1504 597 1
1504 614 1
1504 647 1
1504 671 1
1504 676 1
1504 685 1
1504 704 1
1504 831 1
1504 843 1
1504 1144 1
1504 1231 1
1504 1287 1
1504 1315 1
1505 1 4
1505 29 1
1505 40 2
1505 85 1
1505 91 1
1505 98 1
1505 153 1
1505 335 1
1505 359 2
1505 528 1
1505 580 3
1505 647 4
1505 682 1
1505 791 1
1505 792 1
1505 794 3
1505 856 1
1505 976 1
1505 1116 1
1505 1213 1
1505 1332 1
1506 5 2
1506 8 1
1506 9 7
1506 10 1
1506 13 1
1506 25 3
1506 44 1
1506 84 8
1506 90 1
1506 98 1
1506 115 2
1506 121 1
1506 122 18
1506 150 4
1506 153 7
1506 157 1
1506 160 2
1506 167 1
1506 169 3
1506 180 1
1506 183 5
1506 214 1
1506 234 1
1506 254 2
1506 258 2
1506 265 1
1506 274 1
1506 295 1
1506 311 14
1506 338 1
1506 345 4
1506 382 1
1506 408 1
1506 429 1
1506 617 2
1506 645 1
1506 776 1
1506 846 1
1506 926 2
1506 1099 2
1506 1234 1
1506 1247 1
1506 1258 15
1507 14 1
1507 21 1
1507 45 1
1507 75 1
1507 76 1
1507 119 1
1507 157 5
1507 161 2
1507 167 7
1507 179 2
1507 187 1
1507 238 1
1507 240 1
1507 298 3
1507 299 1
1507 332 1
1507 363 1
1507 366 1
1507 375 1
1507 380 1
1507 385 5
1507 388 1
1507 401 2
1507 405 3
1507 442 1
1507 490 9
1507 491 1
1507 492 1
1507 493 2
1507 494 3
1507 495 1
1507 496 1
1507 497 1
1508 35 1
1508 143 1
1508 146 1
1508 150 1
1508 170 1
1508 178 1
1508 212 1
1508 413 2
1508 511 1
1508 592 1
1508 596 1
1508 597 1
1508 650 1
1508 945 1
1508 976 2
1508 1248 1
1508 1339 1
1509 25 1
1509 102 5
1509 358 4
1509 413 1
1510 9 2
1510 75 3
1510 101 1
1510 117 1
1510 149 1
1510 178 1
1510 183 1
1510 212 1
1510 218 1
1510 278 1
1510 344 1
1510 371 1
1510 387 1
1510 429 2
1510 442 1
1510 513 1
1510 647 1
1510 652 1
1510 668 1
1510 799 5
1510 1021 1
1510 1142 1
1510 1231 1
1511 1 4
1511 50 1
1511 75 1
1511 115 4
1511 167 1
1511 178 1
1511 187 1
1511 237 1
1511 264 1
1511 358 4
1511 595 5
1511 618 1
1511 645 1
1511 810 1
1511 1085 1
1512 64 1
1512 132 3
1512 133 1
1512 139 3
1512 186 1
1512 195 1
1512 312 2
1512 372 1
1512 375 1
1512 546 1
1512 965 4
1513 59 2
1513 61 1
1513 76 1
1513 80 2
1513 95 1
1513 103 3
1513 121 1
1513 153 2
1513 160 1
1513 161 1
1513 163 1
1513 175 1
1513 187 2
1513 257 5
1513 267 1
1513 285 2
1513 302 1
1513 320 3
1513 371 1
1513 379 1
1513 410 1
1513 462 2
1513 467 1
1513 471 1
1513 488 1
1513 518 1
1513 581 1
1513 592 1
1513 595 1
1513 602 1
1513 635 1
1513 653 2
1513 661 1
1513 671 1
1513 672 1
1513 721 1
1513 809 4
1513 852 1
1513 954 1
1513 987 1
1513 990 1
1513 1032 1
1513 1046 1
1513 1069 1
1513 1152 1
1513 1274 1
1513 1291 1
1514 14 1
1514 45 1
1514 82 2
1514 90 5
1514 117 1
1514 153 1
1514 231 1
1514 244 1
1514 257 2
1514 259 1
1514 266 1
1514 318 1
1514 332 1
1514 339 1
1514 351 1
1514 488 1
1514 498 1
1514 530 2
1514 560 1
1514 653 1
1514 661 1
1514 685 6
1514 692 6
1514 705 1
1514 736 1
1514 780 1
1514 800 1
1514 814 1
1514 862 1
1514 970 1
1514 977 1
1514 1101 1
1514 1177 4
1514 1187 1
1515 1 1
1515 3 2
1515 82 1
1515 90 1
1515 212 1
1515 214 1
1515 364 5
1515 398 1
1515 475 1
1515 518 1
1515 589 2
1515 685 11
1515 712 2
1515 822 1
1515 837 1
1515 864 1
1515 1101 1
1515 1113 1
1515 1134 1
1515 1267 1
1515 1298 1
1516 35 1
1516 60 1
1516 77 1
1516 142 1
1516 215 1
1516 281 1
1516 419 1
1516 426 1
1516 471 1
1516 635 1
1516 680 1
1516 800 3
1516 828 1
1516 840 10
1516 1218 1
1517 88 2
1517 115 6
1517 146 1
1517 153 2
1517 163 1
1517 178 1
1517 187 1
1517 257 2
1517 266 1
1517 274 1
1517 281 1
1517 288 1
1517 405 1
1517 442 1
1517 456 1
1517 503 1
1517 531 1
1517 576 1
1517 675 1
1517 710 1
1517 947 1
1517 1089 1
1518 3 1
1518 10 1
1518 21 1
1518 45 1
1518 70 1
1518 75 1
1518 77 2
1518 84 1
1518 135 1
1518 166 1
1518 175 4
1518 185 1
1518 229 1
1518 238 7
1518 249 1
1518 252 1
1518 254 2
1518 263 1
1518 269 2
1518 274 3
1518 285 1
1518 308 2
1518 321 1
1518 387 1
1518 410 1
1518 457 1
1518 483 1
1518 513 1
1518 531 1
1518 582 1
1518 606 1
1518 655 1
1518 800 1
1519 1 3
1519 52 1
1519 105 2
1519 109 1
1519 139 2
1519 163 1
1519 167 6
1519 189 2
1519 202 1
1519 234 1
1519 245 1
1519 252 3
1519 266 1
1519 267 2
1519 299 4
1519 306 1
1519 359 2
1519 426 2
1519 458 1
1519 530 1
1519 722 2
1519 800 1
1520 80 5
1520 109 2
1520 112 6
1520 120 7
1520 178 2
1520 183 1
1520 229 2
1520 241 2
1520 264 1
1520 266 1
1520 287 1
1520 311 5
1520 382 1
1520 413 1
1520 645 1
1520 1290 1
1521 8 3
1521 41 1
1521 116 1
1521 117 1
1521 125 1
1521 152 2
1521 171 1
1521 192 1
1521 193 1
1521 215 1
1521 226 1
1521 259 4
1521 280 2
1521 338 1
1521 487 1
1521 527 2
1521 943 1
1521 970 1
1521 1186 1
1521 1226 1
1522 28 1
1522 29 1
1522 33 1
1522 52 1
1522 65 2
1522 66 1
1522 72 1
1522 129 1
1522 151 1
1522 158 1
1522 226 3
1522 238 1
1522 314 1
1522 394 1
1522 411 1
1522 417 1
1522 422 1
1522 517 2
1522 573 1
1522 594 4
1522 623 1
1522 647 3
1522 648 1
1522 783 1
1522 805 2
1522 843 1
1522 866 1
1522 927 1
1522 962 1
1522 996 1
1522 1220 2
1522 1298 1
1522 1337 1
1523 1 1
1523 58 1
1523 93 1
1523 95 1
1523 153 2
1523 175 1
1523 187 1
1523 188 1
1523 211 1
1523 216 1
1523 220 1
1523 267 2
1523 285 1
1523 301 1
1523 309 3
1523 338 1
1523 375 1
1523 410 1
1523 442 2
1523 454 1
1523 477 2
1523 484 2
1523 505 1
1523 533 1
1523 542 1
1523 559 1
1523 649 1
1523 692 4
1523 721 1
1523 850 1
1523 869 2
1523 876 1
1523 914 1
1523 1002 1
1523 1073 2
1523 1210 1
1523 1256 1
1523 1319 1
1524 29 1
1524 50 1
1524 66 1
1524 126 1
1524 127 1
1524 154 1
1524 158 1
1524 183 1
1524 184 4
1524 226 1
1524 229 1
1524 275 1
1524 301 1
1524 325 2
1524 331 1
1524 345 1
1524 375 1
1524 393 7
1524 464 1
1524 511 1
1524 518 1
1524 543 1
1524 617 1
1524 630 1
1524 635 1
1524 657 1
1524 679 1
1524 706 4
1524 736 1
1524 933 1
1524 960 1
1524 1016 1
1525 3 1
1525 32 1
1525 66 2
1525 77 2
1525 80 2
1525 109 1
1525 112 1
1525 161 1
1525 163 1
1525 167 4
1525 170 1
1525 172 1
1525 178 1
1525 187 1
1525 232 1
1525 254 1
1525 331 3
1525 402 1
1525 496 1
1525 595 3
1525 804 1
1525 806 1
1525 843 6
1525 893 1
1525 981 2
1526 1 1
1526 6 1
1526 10 1
1526 25 1
1526 27 5
1526 41 1
1526 90 1
1526 100 1
1526 122 12
1526 175 1
1526 279 1
1526 298 1
1526 422 1
1526 446 1
1526 542 1
1526 602 1
1526 685 1
1526 721 1
1526 794 6
1527 1 1
1527 21 2
1527 41 1
1527 60 1
1527 65 1
1527 75 4
1527 141 1
1527 143 1
1527 149 5
1527 157 7
1527 167 4
1527 179 4
1527 195 1
1527 224 2
1527 229 2
1527 234 2
1527 254 4
1527 266 1
1527 274 1
1527 278 1
1527 281 1
1527 298 2
1527 302 3
1527 331 3
1527 345 2
1527 363 1
1527 382 1
1527 400 1
1527 406 6
1527 442 1
1527 530 1
1527 547 1
1527 560 1
1527 597 1
1527 646 1
1527 721 1
1527 903 1
1527 1082 1
1527 1211 1
1527 1324 2
1528 76 1
1528 80 3
1528 87 1
1528 124 2
1528 150 2
1528 153 3
1528 183 1
1528 238 1
1528 254 1
1528 285 2
1528 404 1
1528 481 2
1528 514 1
1528 543 1
1528 670 1
1528 831 2
1528 840 2
1528 877 2
1529 87 1
1529 117 4
1529 252 1
1529 286 1
1529 378 4
1529 382 1
1529 514 1
1529 534 1
1529 1146 1
1530 21 2
1530 52 1
1530 75 1
1530 102 2
1530 302 1
1530 540 1
1530 553 2
1530 591 1
1530 652 1
1530 969 1
1530 1006 5
1531 21 2
1531 70 1
1531 100 1
1531 153 7
1531 285 2
1531 301 1
1531 358 2
1531 589 3
1531 707 5
1531 952 1
1532 25 5
1532 32 1
1532 52 1
1532 95 13
1532 102 6
1532 153 2
1532 186 5
1532 267 2
1532 301 1
1532 303 3
1532 358 20
1532 413 14
1532 426 1
1533 10 1
1533 21 1
1533 53 1
1533 56 1
1533 70 1
1533 75 1
1533 94 1
1533 153 2
1533 179 2
1533 378 1
1533 386 1
1533 442 2
1533 471 1
1533 526 1
1533 540 1
1533 704 5
1533 871 2
1533 1276 1
1533 1282 1
1534 10 1
1534 68 1
1534 75 4
1534 138 1
1534 167 7
1534 208 1
1534 256 1
1534 274 2
1534 291 1
1534 307 1
1534 335 1
1534 340 1
1534 356 1
1534 364 1
1534 365 1
1534 385 1
1534 484 3
1534 499 1
1534 555 1
1534 573 2
1534 658 1
1534 728 1
1534 1057 1
1534 1128 4
1534 1152 1
1535 7 1
1535 10 1
1535 20 1
1535 146 1
1535 153 1
1535 178 1
1535 242 1
1535 333 2
1535 339 2
1535 520 1
1535 544 1
1535 570 3
1535 833 2
1536 468 1
1536 1073 1
1536 1217 1
1537 15 4
1537 39 2
1537 45 2
1537 65 1
1537 69 1
1537 75 5
1537 80 1
1537 139 1
1537 172 1
1537 183 1
1537 186 1
1537 195 2
1537 283 1
1537 285 1
1537 302 1
1537 311 1
1537 332 1
1537 421 2
1537 450 2
1537 512 1
1537 571 1
1537 821 1
1537 904 1
1538 24 8
1538 84 2
1538 150 4
1538 168 1
1538 172 5
1538 214 1
1538 220 1
1538 267 1
1538 286 1
1538 315 1
1538 331 2
1538 338 1
1538 359 1
1538 363 1
1538 442 1
1538 556 3
1538 646 1
1538 706 1
1538 903 1
1539 1 1
1539 56 1
1539 75 1
1539 101 2
1539 167 3
1539 218 3
1539 232 1
1539 259 1
1539 331 1
1539 345 1
1539 429 1
1539 443 1
1539 460 3
1539 556 3
1539 559 1
1539 581 1
1539 636 1
1539 649 1
1539 721 1
1540 47 3
1540 75 3
1540 257 1
1540 280 8
1540 376 1
1540 401 1
1540 414 1
1540 434 1
1540 472 4
1540 478 2
1540 506 1
1540 556 1
1540 937 1
1540 1160 1
1541 31 1
1541 64 1
1541 114 1
1541 138 1
1541 205 1
1541 259 2
1541 314 1
1541 415 5
1541 730 1
1541 1038 1
1541 1334 2
1542 51 1
1542 95 1
1542 116 1
1542 158 1
1542 171 1
1542 175 1
1542 187 3
1542 205 1
1542 212 1
1542 249 1
1542 314 2
1542 318 1
1542 336 1
1542 371 1
1542 378 1
1542 419 1
1542 445 1
1542 462 3
1542 473 1
1542 474 1
1542 475 1
1542 506 1
1542 552 1
1542 616 2
1542 640 1
1542 649 1
1542 730 1
1542 1226 1
1543 1 5
1543 18 1
1543 27 1
1543 52 5
1543 65 2
1543 66 2
1543 86 1
1543 104 1
1543 108 1
1543 143 1
1543 160 1
1543 238 1
1543 253 2
1543 319 1
1543 334 1
1543 414 1
1543 422 1
1543 442 1
1543 499 2
1543 540 1
1543 589 1
1543 630 1
1543 655 1
1543 660 1
1543 685 1
1543 693 1
1543 721 1
1543 724 1
1543 769 1
1543 841 1
1543 902 1
1543 973 1
1543 1224 1
1543 1264 4
1543 1295 1
1544 1 2
1544 70 1
1544 127 1
1544 156 1
1544 193 1
1544 271 1
1544 275 1
1544 302 1
1544 431 1
1544 511 1
1544 531 1
1544 541 1
1544 630 1
1544 712 4
1544 769 1
1544 908 1
1544 909 1
1544 1042 1
1544 1045 1
1544 1087 1
1545 21 2
1545 29 1
1545 35 1
1545 85 1
1545 88 1
1545 100 2
1545 115 1
1545 150 1
1545 286 1
1545 335 1
1545 405 2
1545 614 1
1545 645 1
1545 652 1
1545 789 2
1545 911 1
1545 1011 2
1545 1031 1
1545 1036 1
1545 1048 1
1545 1191 1
1545 1242 2
1546 23 1
1546 27 1
1546 29 1
1546 64 1
1546 70 2
1546 81 1
1546 108 1
1546 139 3
1546 142 1
1546 175 1
1546 185 1
1546 192 1
1546 201 1
1546 202 1
1546 203 1
1546 222 3
1546 238 1
1546 259 2
1546 340 2
1546 342 1
1546 364 2
1546 407 3
1546 465 1
1546 470 1
1546 510 1
1546 558 7
1546 625 1
1546 630 1
1546 635 1
1546 752 1
1546 777 1
1546 802 5
1546 903 1
1546 945 3
1546 1057 1
1546 1092 1
1547 50 1
1547 74 1
1547 92 1
1547 100 1
1547 150 9
1547 171 3
1547 224 1
1547 288 1
1547 305 2
1547 389 1
1547 462 1
1547 471 1
1547 554 2
1547 566 1
1547 617 1
1547 648 1
1547 654 1
1547 660 3
1547 679 1
1547 960 1
1547 1242 1
1548 8 1
1548 15 1
1548 60 1
1548 77 2
1548 80 1
1548 109 1
1548 141 1
1548 153 1
1548 167 2
1548 185 2
1548 199 2
1548 234 1
1548 254 1
1548 257 1
1548 298 1
1548 325 2
1548 430 1
1548 530 1
1548 576 1
1548 590 1
1548 602 1
1548 619 1
1548 667 2
1548 830 1
1548 846 2
1548 918 1
1548 995 1
1548 1122 1
1549 23 1
1549 42 1
1549 44 1
1549 50 3
1549 143 1
1549 146 1
1549 147 3
1549 156 1
1549 183 1
1549 185 1
1549 202 1
1549 218 7
1549 232 2
1549 238 1
1549 291 2
1549 403 1
1549 425 1
1549 499 1
1549 587 3
1549 600 5
1549 614 1
1549 673 1
1549 697 6
1549 699 5
1549 712 5
1549 732 7
1549 842 2
1549 962 1
1549 1018 3
1549 1095 1
1549 1319 1
1550 40 4
1550 45 1
1550 75 1
1550 95 1
1550 98 2
1550 99 2
1550 148 1
1550 175 1
1550 183 1
1550 249 6
1550 264 3
1550 311 5
1550 334 1
1550 382 2
1550 412 1
1550 442 1
1550 474 5
1550 480 1
1550 485 1
1550 540 1
1550 595 2
1550 645 1
1551 1 4
1551 8 1
1551 25 1
1551 80 5
1551 82 1
1551 93 1
1551 153 3
1551 158 1
1551 224 1
1551 252 1
1551 254 2
1551 358 1
1551 364 1
1551 394 1
1551 442 1
1551 443 1
1551 455 1
1551 528 1
1551 530 1
1551 602 1
1551 655 2
1551 658 2
1551 706 2
1551 800 2
1551 808 1
1551 866 1
1551 903 1
1551 1082 1
1551 1151 1
1552 11 1
1552 24 2
1552 29 1
1552 30 1
1552 65 1
1552 72 1
1552 80 1
1552 84 2
1552 90 1
1552 92 1
1552 115 1
1552 140 1
1552 150 2
1552 151 1
1552 158 1
1552 159 1
1552 186 1
1552 315 1
1552 378 1
1552 388 2
1552 499 1
1552 574 1
1552 595 1
1552 685 1
1552 773 1
1552 1017 1
1552 1245 1
1552 1322 1
1553 12 1
1553 92 2
1553 203 1
1553 232 1
1553 244 1
1553 250 1
1553 283 1
1553 319 1
1553 332 1
1553 378 2
1553 395 1
1553 415 1
1553 437 1
1553 1073 1
1554 5 3
1554 21 1
1554 25 2
1554 50 1
1554 75 3
1554 84 1
1554 119 1
1554 122 4
1554 143 1
1554 151 1
1554 153 1
1554 220 1
1554 442 1
1554 471 1
1554 503 2
1554 553 3
1554 554 4
1554 589 1
1554 648 1
1554 795 3
1554 980 1
1554 1045 1
1554 1206 1
1555 1 2
1555 25 1
1555 29 4
1555 32 2
1555 127 1
1555 155 2
1555 160 1
1555 185 1
1555 234 3
1555 237 1
1555 240 1
1555 306 1
1555 393 2
1555 397 2
1555 530 2
1555 627 1
1555 751 1
1555 923 1
1555 1094 1
1555 1154 1
1555 1187 1
1556 75 1
1556 86 2
1556 92 1
1556 95 5
1556 157 1
1556 167 6
1556 170 1
1556 226 1
1556 264 1
1556 306 3
1556 382 1
1556 471 1
1556 605 1
1556 647 1
1556 1217 1
1557 88 1
1557 170 3
1557 240 1
1557 244 3
1557 259 3
1557 264 8
1557 279 2
1557 314 1
1557 319 1
1557 415 1
1557 462 1
1557 465 2
1557 559 3
1557 616 1
1557 797 1
1557 848 1
1557 1164 3
1557 1169 1
1558 5 2
1558 64 1
1558 90 4
1558 153 5
1558 154 2
1558 192 2
1558 283 1
1558 336 4
1558 512 1
1558 635 1
1558 695 1
1558 777 1
1558 896 1
1558 934 1
1558 944 1
1558 945 1
1558 1028 4
1558 1054 5
1558 1102 1
1558 1179 1
1559 5 1
1559 10 2
1559 11 1
1559 13 1
1559 21 1
1559 25 1
1559 29 1
1559 82 1
1559 91 1
1559 100 1
1559 115 2
1559 143 1
1559 147 2
1559 153 1
1559 266 1
1559 341 2
1559 356 1
1559 414 1
1559 415 1
1559 442 1
1559 499 1
1559 589 2
1559 599 1
1559 647 3
1559 705 1
1559 858 1
1559 910 1
1559 940 1
1559 1069 1
1559 1083 1
1559 1164 1
1559 1245 1
1559 1264 5
1560 63 2
1560 72 2
1560 82 1
1560 167 1
1560 214 1
1560 220 1
1560 252 1
1560 285 1
1560 289 2
1560 326 1
1560 362 1
1560 425 1
1560 660 2
1560 685 5
1560 688 1
1560 862 1
1560 875 1
1560 1000 5
1560 1007 1
1560 1061 1
1560 1264 8
1560 1297 1
1561 9 2
1561 29 1
1561 41 1
1561 52 1
1561 65 2
1561 134 1
1561 160 1
1561 169 2
1561 178 1
1561 189 1
1561 214 1
1561 234 1
1561 252 2
1561 302 1
1561 326 1
1561 360 1
1561 364 2
1561 365 1
1561 387 2
1561 388 4
1561 394 1
1561 410 1
1561 422 1
1561 454 1
1561 499 2
1561 591 1
1561 678 1
1561 685 1
1561 703 1
1561 709 1
1561 993 1
1561 1111 1
1561 1179 1
1562 5 1
1562 73 1
1562 154 1
1562 159 3
1562 172 1
1562 183 1
1562 225 1
1562 260 1
1562 266 2
1562 285 2
1562 306 2
1562 311 5
1562 364 2
1562 367 4
1562 442 1
1562 527 1
1562 560 1
1562 581 1
1562 630 2
1562 685 4
1562 768 2
1562 822 1
1562 841 2
1562 1089 2
1562 1140 1
1562 1230 1
1563 22 1
1563 74 1
1563 99 8
1563 179 1
1563 244 1
1563 310 1
1563 375 1
1563 442 1
1563 473 1
1563 561 3
1563 773 1
1563 1159 1
1564 10 2
1564 21 1
1564 35 2
1564 70 1
1564 85 3
1564 115 3
1564 146 1
1564 178 1
1564 254 1
1564 266 2
1564 339 1
1564 378 3
1564 426 1
1564 437 1
1564 453 4
1564 473 1
1564 515 1
1564 560 1
1564 624 1
1564 775 1
1564 947 1
1564 1048 2
1565 75 1
1565 117 7
1565 164 1
1565 175 1
1565 186 1
1565 266 1
1565 278 1
1565 375 1
1565 454 1
1565 675 2
1565 931 1
1565 954 1
1565 1124 1
1566 24 2
1566 39 1
1566 45 1
1566 75 1
1566 84 1
1566 88 1
1566 150 1
1566 165 1
1566 248 1
1566 266 3
1566 307 1
1566 365 1
1566 461 1
1566 512 1
1566 556 2
1566 806 1
1566 954 1
1566 1164 1
1567 1 1
1567 5 1
1567 6 1
1567 15 1
1567 21 1
1567 41 1
1567 48 1
1567 70 1
1567 143 1
1567 153 3
1567 160 2
1567 161 2
1567 178 1
1567 218 3
1567 302 1
1567 323 1
1567 347 1
1567 375 1
1567 795 1
1567 846 1
1567 885 1
1567 923 1
1568 28 1
1568 41 1
1568 50 1
1568 56 1
1568 80 1
1568 151 1
1568 153 2
1568 171 1
1568 187 1
1568 249 3
1568 264 1
1568 267 1
1568 379 1
1568 412 1
1568 468 1
1568 483 3
1568 552 1
1568 606 2
1568 618 1
1568 652 1
1568 653 1
1568 656 1
1568 776 1
1568 820 1
1568 924 2
1568 953 4
1568 1011 1
1568 1069 3
1568 1072 1
1568 1119 1
1568 1177 3
1568 1191 1
1569 25 1
1569 35 1
1569 45 2
1569 85 1
1569 105 2
1569 143 1
1569 153 6
1569 169 1
1569 224 1
1569 226 1
1569 240 1
1569 250 1
1569 302 1
1569 323 1
1569 417 1
1569 503 4
1569 528 3
1569 544 1
1569 578 1
1569 589 1
1569 602 1
1569 647 1
1569 650 1
1569 669 1
1569 681 1
1569 685 2
1569 721 1
1569 743 2
1569 795 1
1569 853 1
1569 910 2
1569 927 1
1569 947 1
1569 964 1
1569 1016 1
1569 1063 1
1569 1101 2
1569 1137 1
1569 1145 1
1569 1164 1
1569 1255 1
1569 1263 1
1569 1305 3
1569 1306 1
1569 1321 1
1569 1322 1
1570 43 2
1570 45 1
1570 80 3
1570 81 1
1570 117 2
1570 123 5
1570 139 3
1570 277 1
1570 304 1
1570 306 1
1570 311 3
1570 336 1
1570 372 1
1570 457 1
1570 463 1
1570 1200 1
1571 13 1
1571 15 2
1571 19 1
1571 25 1
1571 29 1
1571 42 1
1571 64 1
1571 80 1
1571 90 2
1571 157 1
1571 179 2
1571 195 1
1571 212 1
1571 254 4
1571 298 1
1571 302 1
1571 365 1
1571 388 2
1571 397 1
1571 425 1
1571 481 1
1571 514 1
1571 527 1
1571 602 1
1571 630 1
1571 667 2
1571 685 1
1571 823 1
1571 878 1
1571 945 1
1571 1084 1
1571 1086 1
1571 1096 1
1571 1111 5
1571 1154 1
1571 1188 2
1572 11 1
1572 21 3
1572 49 2
1572 50 1
1572 63 1
1572 82 1
1572 90 1
1572 96 1
1572 125 4
1572 136 2
1572 178 1
1572 213 1
1572 218 1
1572 277 1
1572 310 1
1572 336 1
1572 412 1
1572 442 2
1572 476 1
1572 567 1
1572 595 3
1572 607 1
1572 677 1
1572 685 1
1572 888 1
1572 959 1
1572 1276 1
1572 1326 1
1572 1336 1
1573 10 1
1573 21 1
1573 25 1
1573 44 1
1573 48 1
1573 50 2
1573 90 3
1573 161 2
1573 175 1
1573 195 1
1573 303 1
1573 310 1
1573 454 1
1573 486 2
1573 621 1
1573 685 3
1573 1007 1
1573 1160 1
1573 1244 1
1574 12 1
1574 76 2
1574 100 1
1574 125 1
1574 167 1
1574 197 4
1574 218 1
1574 257 1
1574 283 2
1574 286 1
1574 338 2
1574 460 7
1574 499 1
1574 532 7
1574 557 1
1575 5 1
1575 80 2
1575 93 1
1575 110 1
1575 175 1
1575 179 1
1575 223 1
1575 252 1
1575 307 2
1575 319 1
1575 336 1
1575 378 3
1575 415 1
1575 605 2
1575 876 1
1575 1094 1
1575 1151 3
1576 32 1
1576 52 1
1576 139 2
1576 267 1
1576 306 5
1576 307 2
1576 360 1
1576 378 2
1576 426 1
1576 706 5
1577 28 1
1577 70 2
1577 80 4
1577 90 2
1577 117 1
1577 139 1
1577 146 1
1577 160 2
1577 168 1
1577 172 1
1577 175 3
1577 199 1
1577 245 3
1577 347 3
1577 366 1
1577 387 3
1577 394 3
1577 517 1
1577 555 2
1577 650 1
1577 685 1
1577 719 1
1577 862 1
1577 971 3
1577 1007 1
1577 1222 1
1578 9 2
1578 29 1
1578 41 1
1578 45 6
1578 62 1
1578 75 1
1578 80 1
1578 90 1
1578 154 1
1578 183 1
1578 185 2
1578 225 2
1578 244 1
1578 271 1
1578 311 3
1578 345 3
1578 364 2
1578 366 1
1578 367 3
1578 371 1
1578 446 1
1578 470 8
1578 657 1
1578 660 2
1578 694 1
1578 720 1
1578 733 1
1578 743 1
1578 770 1
1578 779 1
1578 804 8
1578 844 1
1578 927 1
1578 1064 1
1578 1096 1
1578 1097 1
1578 1216 1
1579 34 7
1579 45 1
1579 50 2
1579 84 4
1579 119 2
1579 133 2
1579 149 1
1579 161 1
1579 171 2
1579 241 1
1579 246 3
1579 257 2
1579 339 3
1579 405 1
1579 410 4
1579 454 1
1579 456 1
1579 471 4
1579 484 1
1579 552 3
1579 559 1
1579 635 1
1579 649 1
1579 653 9
1579 664 1
1579 672 4
1579 692 2
1579 703 1
1579 810 3
1579 820 1
1579 1006 1
1579 1009 1
1579 1015 1
1579 1021 1
1579 1043 1
1579 1100 1
1579 1221 1
1579 1233 1
1579 1261 3
1580 29 1
1580 32 1
1580 34 1
1580 41 1
1580 95 1
1580 119 1
1580 133 1
1580 187 2
1580 245 1
1580 257 4
1580 267 4
1580 302 1
1580 318 1
1580 339 3
1580 375 1
1580 410 1
1580 415 1
1580 442 1
1580 477 6
1580 530 1
1580 595 1
1580 660 1
1580 672 1
1580 692 1
1580 736 1
1580 743 1
1580 820 1
1580 888 2
1580 946 1
1580 1046 2
1580 1069 2
1580 1071 1
1580 1237 2
1580 1238 3
1580 1243 1
1581 35 1
1581 78 1
1581 105 1
1581 139 4
1581 141 5
1581 157 3
1581 167 14
1581 178 2
1581 192 2
1581 214 4
1581 218 5
1581 233 1
1581 254 2
1581 266 1
1581 269 3
1581 306 3
1581 378 1
1581 381 1
1581 385 2
1581 658 1
1581 671 1
1581 690 1
1581 1059 1
1581 1172 1
1582 8 1
1582 25 1
1582 45 1
1582 125 3
1582 186 1
1582 229 1
1582 306 1
1582 363 1
1582 581 1
1583 35 2
1583 53 1
1583 79 2
1583 143 1
1583 154 2
1583 162 1
1583 164 1
1583 277 2
1583 446 1
1583 622 2
1583 768 1
1583 775 2
1583 855 1
1583 976 1
1583 1116 2
1583 1126 1
1584 37 1
1584 60 1
1584 116 1
1584 139 13
1584 158 1
1584 182 1
1584 185 1
1584 206 1
1584 215 1
1584 292 1
1584 364 1
1584 374 1
1584 426 1
1584 584 1
1584 616 1
1584 736 1
1584 754 1
1584 1096 1
1584 1112 1
1584 1133 1
1584 1164 2
1585 1 4
1585 10 1
1585 29 1
1585 70 3
1585 86 1
1585 105 1
1585 254 1
1585 266 1
1585 281 1
1585 458 1
1585 520 2
1585 569 1
1585 572 3
1585 624 2
1585 775 2
1585 1218 1
1585 1299 2
1585 1329 1
1586 10 1
1586 11 1
1586 21 5
1586 25 1
1586 38 1
1586 50 1
1586 70 1
1586 75 1
1586 102 3
1586 105 1
1586 153 1
1586 170 1
1586 171 1
1586 172 1
1586 191 1
1586 206 2
1586 218 1
1586 249 2
1586 264 2
1586 267 2
1586 285 1
1586 286 2
1586 296 1
1586 302 3
1586 310 3
1586 311 1
1586 359 1
1586 412 3
1586 458 1
1586 473 4
1586 511 1
1586 542 1
1586 572 5
1586 589 1
1586 602 1
1586 613 2
1586 709 1
1586 960 1
1586 1183 1
1586 1221 1
1586 1228 1
1586 1299 2
1586 1327 2
1586 1328 4
1586 1330 1
1586 1341 1
1586 1342 1
1587 1 2
1587 16 1
1587 17 1
1587 25 6
1587 30 1
1587 102 2
1587 126 1
1587 264 2
1587 413 2
1587 442 1
1587 449 2
1587 683 2
1587 729 1
1587 765 1
1587 1053 2
1587 1178 2
1587 1234 1
1587 1278 1
1587 1306 1
1587 1332 1
1588 10 1
1588 21 2
1588 25 3
1588 45 1
1588 65 1
1588 75 1
1588 147 1
1588 153 1
1588 215 1
1588 273 1
1588 302 1
1588 312 1
1588 331 1
1588 355 1
1588 363 1
1588 442 1
1588 503 2
1588 511 1
1588 556 1
1588 980 2
1588 1217 1
1589 25 3
1589 45 1
1589 66 1
1589 93 1
1589 105 2
1589 153 1
1589 160 1
1589 164 1
1589 187 1
1589 195 1
1589 224 1
1589 281 1
1589 302 1
1589 325 1
1589 331 2
1589 401 1
1589 442 1
1590 25 7
1590 27 1
1590 87 1
1590 117 4
1590 122 1
1590 153 1
1590 208 1
1590 232 1
1590 273 2
1590 301 1
1590 377 4
1590 492 4
1590 775 1
1590 817 1
1590 818 1
1590 1017 2
1591 5 2
1591 21 1
1591 86 3
1591 94 6
1591 95 1
1591 151 1
1591 153 2
1591 169 1
1591 170 1
1591 182 1
1591 264 3
1591 319 1
1591 442 1
1591 614 2
1591 645 10
1591 697 3
1591 911 1
1591 1187 1
1591 1322 2
1592 21 1
1592 25 3
1592 85 3
1592 146 1
1592 266 2
1592 286 1
1592 301 1
1592 302 1
1592 306 1
1592 325 1
1592 326 1
1592 379 1
1592 494 1
1592 515 1
1592 792 1
1592 794 1
1592 876 1
1592 1006 7
1592 1118 1
1592 1177 1
1592 1249 1
1593 5 1
1593 21 1
1593 35 1
1593 75 2
1593 76 1
1593 88 2
1593 95 2
1593 153 3
1593 170 2
1593 183 1
1593 195 1
1593 204 4
1593 215 1
1593 233 1
1593 241 1
1593 277 1
1593 327 1
1593 356 1
1593 359 2
1593 398 1
1593 486 1
1593 488 1
1593 534 2
1593 649 1
1593 663 1
1593 667 1
1593 704 4
1593 871 2
1593 955 1
1594 21 1
1594 41 5
1594 63 2
1594 90 1
1594 153 2
1594 225 1
1594 238 1
1594 337 1
1594 345 1
1594 367 1
1594 446 3
1594 460 1
1594 561 3
1594 685 1
1594 808 1
1594 832 1
1594 868 1
1594 914 1
1594 959 2
1594 1269 2
1594 1313 2
1594 1316 3
1594 1335 6
1595 25 4
1595 61 1
1595 63 1
1595 79 1
1595 87 1
1595 184 2
1595 215 1
1595 226 10
1595 283 1
1595 332 1
1595 351 1
1595 418 1
1595 442 1
1595 471 3
1595 512 1
1595 516 2
1595 528 1
1595 632 1
1595 666 1
1595 712 2
1595 916 1
1595 924 1
1595 1062 1
1595 1115 1
1595 1251 1
1595 1275 1
1595 1279 1
1596 63 1
1596 70 1
1596 72 2
1596 110 1
1596 143 2
1596 158 1
1596 184 1
1596 250 1
1596 254 1
1596 286 8
1596 289 1
1596 363 1
1596 389 6
1596 442 1
1596 483 1
1596 512 1
1596 522 3
1596 527 1
1596 685 9
1596 848 2
1596 876 4
1596 900 2
1596 1096 1
1596 1099 1
1596 1111 1
1596 1134 1
1596 1240 1
1596 1275 3
1597 60 1
1597 70 1
1597 82 5
1597 88 1
1597 100 1
1597 188 3
1597 215 1
1597 257 2
1597 319 1
1597 404 1
1597 576 1
1597 613 1
1597 655 1
1597 1164 1
1598 45 1
1598 76 1
1598 80 2
1598 88 6
1598 102 2
1598 150 1
1598 170 5
1598 178 1
1598 187 2
1598 240 2
1598 268 3
1598 300 2
1598 325 2
1598 354 2
1598 359 5
1598 433 3
1598 441 7
1598 442 1
1598 512 2
1598 530 1
1598 540 1
1598 554 8
1598 574 2
1598 617 1
1598 721 1
1598 725 1
1598 782 1
1598 960 2
1598 1169 2
1599 77 1
1599 85 2
1599 108 2
1599 109 1
1599 160 1
1599 192 1
1599 212 1
1599 234 1
1599 306 2
1599 314 2
1599 338 1
1599 345 1
1599 387 1
1599 397 2
1599 471 1
1599 521 1
1599 582 2
1599 749 1
1599 843 1
1599 844 1
1599 849 1
1599 902 1
1599 912 1
1599 945 1
1599 1101 3
1599 1128 1
1599 1221 1
1599 1236 1
1599 1300 1
1600 46 1
1600 70 1
1600 95 1
1600 100 1
1600 126 1
1600 153 2
1600 185 1
1600 213 1
1600 257 4
1600 273 1
1600 274 1
1600 320 4
1600 358 2
1600 409 1
1600 461 1
1600 483 1
1600 516 1
1600 566 1
1600 583 1
1600 638 1
1600 644 1
1600 649 1
1600 699 1
1600 835 1
1600 927 1
1600 1131 1
1601 150 1
1601 215 1
1601 294 1
1601 375 1
1601 379 1
1601 419 2
1601 724 1
1601 889 3
1601 994 3
1602 55 2
1602 61 3
1602 82 2
1602 119 1
1602 161 1
1602 180 1
1602 185 2
1602 191 1
1602 216 2
1602 232 2
1602 274 1
1602 301 1
1602 303 5
1602 442 1
1602 471 4
1602 484 5
1602 527 1
1602 635 1
1602 710 3
1602 921 3
1602 1013 1
1602 1033 1
1602 1153 1
1602 1252 3
1602 1276 1
1603 7 1
1603 13 2
1603 69 1
1603 85 1
1603 95 1
1603 146 1
1603 153 1
1603 214 2
1603 273 1
1603 286 2
1603 446 1
1603 448 1
1603 460 1
1603 544 1
1603 570 1
1603 572 3
1603 660 1
1603 697 1
1603 792 1
1603 794 3
1603 817 1
1603 818 2
1603 833 2
1603 1043 1
1603 1053 1
1603 1090 1
1604 10 1
1604 94 2
1604 139 5
1604 143 1
1604 148 1
1604 153 3
1604 277 10
1604 279 1
1604 488 1
1604 625 1
1604 650 1
1604 975 1
1604 1203 1
1605 3 2
1605 45 1
1605 52 1
1605 90 1
1605 153 1
1605 167 1
1605 172 1
1605 236 1
1605 285 1
1605 294 2
1605 308 4
1605 311 1
1605 371 1
1605 381 1
1605 546 6
1605 580 3
1605 582 1
1605 800 1
1606 5 2
1606 78 1
1606 80 2
1606 93 1
1606 100 1
1606 192 1
1606 356 2
1606 378 8
1606 488 1
1606 582 1
1606 817 1
1606 818 4
1606 917 1
1607 44 1
1607 86 1
1607 139 3
1607 167 4
1607 266 2
1607 306 2
1607 426 1
1607 589 1
1607 834 1
1607 979 4
1607 1057 1
1607 1311 1
1608 1 10
1608 28 1
1608 29 1
1608 32 4
1608 43 2
1608 139 1
1608 167 8
1608 187 1
1608 231 1
1608 234 1
1608 240 1
1608 266 2
1608 298 3
1608 300 2
1608 306 1
1608 319 1
1608 359 1
1608 365 1
1608 371 1
1608 383 1
1608 527 1
1608 530 1
1608 555 1
1608 591 1
1608 649 2
1608 670 2
1608 672 1
1608 673 1
1608 705 1
1608 722 2
1608 724 1
1608 848 2
1608 932 1
1608 966 3
1608 1073 1
1608 1141 1
1608 1153 1
1608 1156 1
1608 1179 1
1608 1215 1
1608 1261 1
1608 1297 1
1608 1324 2
1609 27 1
1609 29 1
1609 84 1
1609 126 4
1609 186 3
1609 226 1
1609 303 10
1609 331 1
1609 382 1
1609 409 1
1609 442 1
1609 522 1
1609 736 9
1609 814 1
1609 866 3
1609 876 2
1609 903 7
1609 1145 1
1610 13 2
1610 21 1
1610 27 1
1610 89 1
1610 187 1
1610 262 1
1610 277 4
1610 295 1
1610 298 2
1610 443 4
1610 460 2
1610 515 1
1610 544 5
1610 546 1
1610 647 1
1610 655 1
1610 692 1
1610 766 3
1610 1178 2
1610 1182 1
1610 1184 2
1610 1259 1
1610 1278 1
1611 29 2
1611 35 1
1611 37 6
1611 66 1
1611 91 2
1611 110 1
1611 122 2
1611 143 1
1611 173 1
1611 178 1
1611 186 1
1611 189 1
1611 229 1
1611 379 3
1611 400 2
1611 562 1
1611 729 1
1611 743 1
1611 763 1
1611 766 1
1611 1137 1
1612 9 1
1612 49 2
1612 80 1
1612 90 1
1612 149 1
1612 153 1
1612 174 1
1612 178 1
1612 187 1
1612 220 2
1612 258 1
1612 428 1
1612 475 1
1612 512 2
1612 660 3
1612 670 1
1612 685 6
1612 686 1
1612 804 1
1612 824 1
1612 875 1
1612 876 1
1612 1142 1
1612 1215 1
1612 1247 1
1612 1265 1
1612 1289 1
1612 1301 1
1613 3 1
1613 5 1
1613 21 1
1613 45 1
1613 86 1
1613 119 2
1613 125 2
1613 141 1
1613 170 1
1613 186 1
1613 218 1
1613 267 1
1613 315 2
1613 412 2
1613 460 2
1613 655 1
1613 736 1
1614 95 3
1614 102 1
1614 186 1
1614 191 3
1614 219 1
1614 227 1
1614 249 5
1614 264 1
1614 273 1
1614 285 4
1614 302 1
1614 480 1
1614 488 1
1614 489 1
1614 504 1
1614 514 1
1614 552 1
1614 672 2
1614 960 1
1615 1 1
1615 11 1
1615 23 1
1615 38 1
1615 39 1
1615 41 2
1615 44 1
1615 45 3
1615 58 1
1615 87 2
1615 150 8
1615 286 2
1615 364 3
1615 495 1
1615 576 1
1615 697 1
1615 784 1
1615 811 1
1615 914 2
1615 940 1
1615 1072 1
1615 1090 1
1615 1287 1
1615 1313 10
1615 1316 2
1615 1339 1
1616 7 4
1616 10 1
1616 52 1
1616 81 1
1616 85 1
1616 139 1
1616 153 1
1616 162 1
1616 191 1
1616 250 2
1616 279 1
1616 299 2
1616 359 1
1616 446 4
1616 458 1
1616 528 2
1616 534 1
1616 645 4
1616 650 1
1616 924 1
1616 948 4
1616 1077 2
1616 1116 1
1617 103 2
1617 153 1
1617 170 1
1617 186 1
1617 252 1
1617 259 2
1617 273 1
1617 319 1
1617 401 1
1617 461 1
1617 465 3
1617 471 5
1617 512 1
1617 562 1
1617 605 1
1617 649 1
1617 661 1
1617 701 1
1617 814 2
1617 905 1
1617 1177 6
1617 1199 1
1618 15 2
1618 21 1
1618 28 1
1618 61 1
1618 63 1
1618 70 1
1618 80 3
1618 110 2
1618 127 1
1618 167 2
1618 179 4
1618 190 1
1618 226 2
1618 254 1
1618 275 3
1618 298 3
1618 317 1
1618 320 1
1618 384 1
1618 388 1
1618 392 1
1618 393 1
1618 421 1
1618 425 1
1618 427 1
1618 456 1
1618 471 1
1618 475 3
1618 481 1
1618 516 1
1618 527 2
1618 551 1
1618 621 2
1618 631 1
1618 640 1
1618 643 1
1618 697 5
1618 784 1
1618 785 3
1618 821 6
1618 823 1
1618 829 1
1618 902 1
1618 1003 1
1618 1025 1
1618 1052 2
1618 1080 1
1618 1136 1
1618 1149 2
1618 1193 1
1619 41 1
1619 45 1
1619 63 3
1619 64 1
1619 90 3
1619 102 1
1619 115 2
1619 158 1
1619 161 1
1619 183 1
1619 189 1
1619 238 1
1619 259 2
1619 282 1
1619 294 3
1619 504 2
1619 562 1
1619 594 1
1619 661 2
1619 685 7
1619 692 1
1619 780 1
1619 798 1
1619 804 1
1619 836 4
1619 864 1
1619 870 2
1619 974 1
1619 1047 3
1619 1093 2
1619 1111 2
1619 1177 1
1619 1178 1
1619 1190 2
1619 1205 1
1619 1232 1
1619 1275 1
1619 1295 2
1619 1322 1
1620 76 1
1620 145 1
1620 147 2
1620 149 2
1620 189 1
1620 220 1
1620 231 1
1620 278 1
1620 302 1
1620 331 1
1620 543 1
1620 591 1
1620 655 1
1620 694 1
1620 932 2
1620 981 1
1620 991 1
1620 1020 1
1620 1157 2
1620 1165 1
1620 1216 4
1621 35 4
1621 63 1
1621 72 2
1621 93 1
1621 183 1
1621 184 1
1621 207 1
1621 213 2
1621 221 1
1621 284 4
1621 289 2
1621 405 1
1621 498 2
1621 575 1
1621 685 7
1621 731 1
1621 864 1
1621 999 5
1621 1000 4
1621 1065 1
1621 1068 1
1621 1084 1
1621 1101 1
1621 1130 1
1621 1201 10
1621 1240 1
1621 1264 1
1621 1286 1
1621 1313 7
1621 1335 7
1622 14 2
1622 86 1
1622 95 1
1622 153 2
1622 170 10
1622 191 2
1622 246 3
1622 285 1
1622 317 1
1622 339 3
1622 477 1
1622 489 2
1622 530 1
1622 634 1
1622 649 1
1622 748 1
1622 814 4
1622 880 1
1622 1003 1
1622 1093 1
1622 1097 2
1622 1120 1
1622 1177 6
1622 1205 1
1622 1220 1
1622 1229 1
1623 9 2
1623 25 2
1623 98 1
1623 102 1
1623 146 4
1623 149 1
1623 150 1
1623 151 1
1623 153 1
1623 160 1
1623 165 1
1623 166 1
1623 183 1
1623 186 1
1623 192 1
1623 258 1
1623 260 1
1623 278 1
1623 303 1
1623 428 1
1623 442 1
1623 488 1
1623 614 1
1623 652 1
1623 668 1
1623 704 3
1623 738 1
1623 872 1
1623 1330 1
1624 5 2
1624 9 2
1624 21 1
1624 52 4
1624 90 7
1624 149 1
1624 183 1
1624 184 1
1624 217 1
1624 218 2
1624 262 1
1624 265 1
1624 300 1
1624 363 1
1624 364 1
1624 389 1
1624 428 1
1624 475 3
1624 623 1
1624 660 1
1624 743 1
1624 749 2
1624 751 7
1624 916 1
1624 1096 1
1624 1203 5
1624 1262 1
1625 1 8
1625 35 4
1625 65 1
1625 76 2
1625 146 1
1625 163 1
1625 175 1
1625 191 5
1625 224 1
1625 250 2
1625 252 1
1625 260 1
1625 277 1
1625 292 1
1625 315 1
1625 422 2
1625 685 4
1625 694 1
1625 721 1
1625 747 1
1625 875 1
1625 914 1
1625 1004 2
1625 1190 12
1625 1280 1
1625 1306 1
1625 1313 5
1625 1316 6
1626 116 1
1626 119 1
1626 140 1
1626 141 1
1626 185 1
1626 192 1
1626 226 2
1626 238 1
1626 240 1
1626 266 2
1626 343 1
1626 363 1
1626 371 1
1626 506 5
1626 711 1
1626 797 2
1626 1190 1
1626 1311 1
1627 73 1
1627 80 1
1627 81 1
1627 110 1
1627 153 1
1627 187 3
1627 212 1
1627 215 2
1627 216 1
1627 232 2
1627 238 4
1627 257 6
1627 258 2
1627 259 3
1627 267 1
1627 314 2
1627 318 1
1627 320 2
1627 351 1
1627 410 1
1627 422 1
1627 465 1
1627 494 1
1627 498 1
1627 542 1
1627 804 3
1627 806 1
1627 931 1
1627 1177 1
1627 1180 1
1628 21 2
1628 75 3
1628 76 1
1628 88 3
1628 89 3
1628 105 2
1628 254 1
1628 331 2
1628 349 2
1628 360 4
1628 415 2
1628 530 1
1628 709 2
1628 1217 1
1629 14 1
1629 34 1
1629 82 1
1629 209 1
1629 266 2
1629 379 4
1629 385 2
1629 410 1
1629 672 1
1629 692 2
1629 834 1
1629 939 6
1629 968 1
1629 977 1
1629 1177 3
1630 27 1
1630 34 2
1630 42 1
1630 80 1
1630 104 1
1630 153 1
1630 161 2
1630 163 1
1630 188 1
1630 192 1
1630 302 1
1630 320 3
1630 321 1
1630 375 1
1630 465 1
1630 512 3
1630 556 2
1630 595 2
1630 683 1
1630 685 1
1630 760 1
1630 820 2
1630 844 1
1630 876 1
1630 1149 1
1630 1177 1
1631 79 1
1631 87 1
1631 143 1
1631 170 1
1631 171 1
1631 192 2
1631 195 1
1631 258 1
1631 279 1
1631 319 1
1631 442 1
1631 511 1
1631 559 1
1631 594 2
1631 631 1
1631 685 13
1631 727 2
1631 864 1
1631 878 1
1631 945 1
1631 983 2
1631 1111 9
1631 1207 1
1631 1275 1
1632 104 1
1632 141 1
1632 179 1
1632 181 1
1632 187 1
1632 229 1
1632 235 6
1632 257 1
1632 305 1
1632 319 2
1632 342 1
1632 458 1
1632 594 2
1632 614 1
1632 652 1
1632 661 1
1632 838 2
1632 1171 1
1633 32 1
1633 82 1
1633 84 2
1633 146 1
1633 148 1
1633 153 1
1633 169 1
1633 198 1
1633 218 1
1633 258 1
1633 426 1
1633 442 1
1633 499 1
1633 503 1
1633 512 1
1633 531 3
1633 548 2
1633 668 1
1633 705 1
1633 721 1
1633 833 1
1633 844 1
1633 964 1
1633 1001 1
1633 1165 1
1633 1303 1
1634 45 1
1634 50 2
1634 75 2
1634 80 10
1634 84 3
1634 88 12
1634 124 1
1634 150 1
1634 163 1
1634 188 2
1634 229 2
1634 244 3
1634 286 1
1634 319 1
1634 382 1
1634 531 1
1634 548 1
1634 625 1
1634 743 1
1634 793 5
1634 932 1
1635 3 3
1635 79 1
1635 87 2
1635 98 1
1635 151 1
1635 191 1
1635 218 4
1635 283 2
1635 305 6
1635 306 1
1635 359 1
1635 372 3
1635 379 1
1635 553 2
1635 606 1
1635 645 5
1635 652 1
1635 660 6
1635 670 1
1635 763 3
1635 833 1
1635 926 1
1635 1076 2
1635 1214 1
1635 1234 1
1636 33 1
1636 68 1
1636 86 1
1636 100 1
1636 117 1
1636 301 1
1636 403 1
1636 410 2
1636 418 1
1636 443 1
1636 530 1
1636 595 1
1636 627 3
1636 655 3
1636 725 2
1636 834 1
1636 954 1
1636 1066 1
1636 1135 1
1636 1165 1
1636 1172 1
1636 1225 5
1637 32 1
1637 38 1
1637 48 2
1637 56 3
1637 57 2
1637 66 3
1637 86 1
1637 117 1
1637 153 3
1637 156 1
1637 161 1
1637 167 3
1637 179 1
1637 186 2
1637 187 2
1637 230 1
1637 301 1
1637 306 2
1637 318 1
1637 405 1
1637 419 1
1637 427 1
1637 530 2
1637 692 2
1637 697 1
1637 711 1
1637 743 1
1637 806 1
1637 820 1
1637 1021 1
1637 1072 1
1637 1095 3
1637 1109 1
1637 1187 1
1637 1221 1
1638 50 1
1638 56 3
1638 95 3
1638 109 1
1638 117 3
1638 139 1
1638 153 3
1638 163 1
1638 164 1
1638 186 1
1638 300 1
1638 307 1
1638 383 1
1638 387 1
1638 399 1
1638 442 1
1638 660 1
1638 711 1
1638 987 1
1639 139 7
1639 192 1
1639 203 1
1639 234 1
1639 252 1
1639 283 1
1639 285 1
1639 286 2
1639 383 1
1639 429 1
1639 450 1
1639 471 2
1639 535 1
1639 595 1
1639 670 1
1639 826 4
1639 846 1
1639 966 1
1640 1 3
1640 3 8
1640 21 2
1640 29 1
1640 37 1
1640 44 2
1640 306 1
1640 347 1
1640 457 1
1640 505 1
1640 582 1
1640 775 1
1640 1083 3
1640 1133 1
1641 1 1
1641 21 1
1641 32 1
1641 35 1
1641 44 2
1641 70 1
1641 86 1
1641 87 1
1641 90 1
1641 92 2
1641 147 6
1641 254 2
1641 303 1
1641 335 1
1641 339 1
1641 382 1
1641 391 1
1641 477 1
1641 499 1
1641 503 1
1641 556 1
1641 647 1
1641 743 2
1641 891 1
1641 927 1
1641 1099 1
1641 1100 1
1641 1264 2
1641 1265 6
1642 34 5
1642 50 2
1642 95 2
1642 170 1
1642 339 3
1642 410 2
1642 471 4
1642 477 1
1642 484 10
1642 489 4
1642 530 1
1642 532 1
1642 552 1
1642 559 1
1642 653 2
1642 662 1
1642 672 1
1642 798 1
1642 814 2
1642 836 1
1642 869 1
1642 960 1
1642 974 1
1642 1001 1
1642 1043 1
1642 1046 1
1642 1177 1
1643 75 3
1643 95 1
1643 149 3
1643 157 3
1643 167 5
1643 179 1
1643 298 1
1643 413 1
1643 442 3
1643 528 1
1643 848 1
1643 903 2
1643 1039 2
1643 1149 1
1644 21 1
1644 35 2
1644 87 2
1644 91 2
1644 153 1
1644 155 3
1644 171 2
1644 187 1
1644 249 1
1644 260 1
1644 279 1
1644 310 2
1644 319 2
1644 342 1
1644 379 2
1644 436 1
1644 443 1
1644 446 5
1644 562 1
1644 650 1
1644 746 1
1644 924 1
1644 954 1
1644 977 1
1645 1 1
1645 21 3
1645 35 1
1645 80 1
1645 110 1
1645 111 1
1645 143 1
1645 153 1
1645 214 2
1645 254 1
1645 283 1
1645 302 1
1645 348 1
1645 375 1
1645 381 3
1645 443 1
1645 457 1
1645 544 1
1645 682 1
1645 723 1
1645 846 1
1645 962 1
1645 998 1
1645 1053 1
1645 1184 2
1645 1284 1
1646 34 4
1646 50 5
1646 178 1
1646 191 1
1646 257 1
1646 267 2
1646 288 1
1646 302 1
1646 309 1
1646 327 1
1646 471 12
1646 484 1
1646 498 1
1646 512 1
1646 514 3
1646 542 1
1646 544 1
1646 552 1
1646 662 1
1646 692 2
1646 814 2
1646 820 1
1646 834 1
1646 869 6
1646 1131 1
1646 1242 1
1646 1311 2
1647 1 1
1647 37 1
1647 117 1
1647 122 1
1647 153 1
1647 157 1
1647 206 4
1647 229 1
1647 237 1
1647 254 2
1647 334 1
1647 366 1
1647 390 3
1647 502 1
1647 542 1
1647 655 1
1647 705 1
1647 743 1
1647 838 1
1647 894 1
1647 1108 3
1647 1285 2
1647 1290 1
1648 1 1
1648 9 1
1648 41 1
1648 80 5
1648 86 1
1648 107 1
1648 127 1
1648 169 1
1648 170 1
1648 178 1
1648 252 1
1648 331 1
1648 340 1
1648 375 1
1648 383 1
1648 512 3
1648 758 1
1648 804 2
1648 821 7
1648 865 6
1648 1078 1
1648 1165 2
1648 1171 8
1649 45 2
1649 57 1
1649 77 2
1649 82 1
1649 119 1
1649 133 1
1649 137 1
1649 142 1
1649 150 1
1649 184 2
1649 207 1
1649 215 2
1649 286 3
1649 302 1
1649 325 1
1649 351 1
1649 442 5
1649 458 1
1649 591 1
1649 670 1
1649 739 1
1649 804 1
1649 843 1
1649 916 1
1649 1085 1
1649 1162 1
1650 1 2
1650 21 1
1650 25 1
1650 75 1
1650 131 1
1650 134 1
1650 153 4
1650 157 1
1650 167 2
1650 215 1
1650 229 1
1650 260 1
1650 298 2
1650 299 1
1650 301 2
1650 375 2
1650 383 1
1650 442 1
1650 446 1
1650 530 2
1650 646 1
1650 653 2
1650 685 4
1650 711 1
1650 780 1
1650 900 1
1650 1023 1
1650 1094 1
1650 1109 1
1651 1 1
1651 5 2
1651 9 1
1651 42 3
1651 66 1
1651 92 1
1651 339 1
1651 393 1
1651 570 1
1651 669 1
1651 685 4
1651 718 1
1651 773 1
1651 854 1
1651 876 1
1651 1111 1
1651 1114 1
1651 1124 1
1651 1166 1
1651 1178 1
1651 1203 3
1651 1302 1
1652 10 1
1652 21 1
1652 102 4
1652 143 1
1652 153 1
1652 175 1
1652 215 1
1652 356 1
1652 705 2
1652 764 3
1652 799 4
1652 959 1
1653 1 4
1653 64 1
1653 93 1
1653 94 1
1653 105 1
1653 139 4
1653 167 8
1653 189 4
1653 226 1
1653 234 1
1653 267 1
1653 306 1
1653 319 1
1653 359 1
1653 375 1
1653 415 1
1653 673 1
1653 722 1
1653 800 1
1653 846 1
1653 1151 2
1653 1164 1
1653 1211 1
1654 35 1
1654 65 1
1654 70 3
1654 73 1
1654 90 3
1654 91 3
1654 142 1
1654 157 1
1654 160 1
1654 183 1
1654 185 1
1654 243 1
1654 245 1
1654 254 1
1654 264 1
1654 283 1
1654 285 2
1654 300 1
1654 347 2
1654 375 1
1654 382 1
1654 383 1
1654 502 1
1654 534 1
1654 581 1
1654 670 1
1654 688 1
1654 966 2
1654 1102 1
1654 1106 2
1654 1123 1
1654 1165 1
1655 3 1
1655 12 1
1655 32 1
1655 75 1
1655 203 1
1655 232 1
1655 234 1
1655 348 2
1655 375 1
1655 378 2
1655 437 3
1655 439 3
1655 526 1
1655 655 1
1655 675 1
1655 738 5
1655 917 1
1655 1217 1
1656 75 3
1656 157 1
1656 167 2
1656 181 1
1656 188 3
1656 234 1
1656 267 1
1656 294 2
1656 298 1
1656 331 1
1656 722 1
1656 1217 1
1657 1 1
1657 21 1
1657 35 1
1657 45 1
1657 65 1
1657 75 1
1657 77 1
1657 88 1
1657 143 1
1657 153 2
1657 165 1
1657 172 1
1657 215 2
1657 229 2
1657 232 1
1657 274 1
1657 415 1
1657 527 1
1657 616 1
1657 711 3
1657 855 1
1657 954 1
1657 1181 1
1658 9 1
1658 53 1
1658 117 2
1658 244 2
1658 258 2
1658 261 1
1658 265 1
1658 277 1
1658 381 1
1658 413 1
1658 428 1
1658 429 2
1658 652 2
1658 682 1
1658 705 1
1658 710 1
1658 724 2
1658 789 2
1658 856 2
1658 875 2
1658 931 1
1658 1247 1
1658 1285 1
1659 1 1
1659 102 6
1659 115 2
1659 122 1
1659 167 4
1659 252 1
1659 254 1
1659 267 2
1659 288 3
1659 306 2
1659 352 1
1659 454 1
1659 697 5
1659 1137 1
1659 1217 1
1659 1242 3
1659 1307 1
1660 12 1
1660 21 2
1660 28 1
1660 74 1
1660 75 3
1660 153 5
1660 257 1
1660 276 1
1660 310 1
1660 331 2
1660 426 1
1660 442 1
1660 460 4
1660 540 1
1660 553 6
1660 556 2
1660 947 1
1660 968 1
1661 10 1
1661 21 3
1661 39 1
1661 44 1
1661 64 1
1661 70 1
1661 86 3
1661 94 1
1661 102 1
1661 143 1
1661 148 1
1661 153 2
1661 186 1
1661 335 1
1661 358 3
1662 1 2
1662 3 1
1662 4 1
1662 15 1
1662 21 2
1662 24 1
1662 27 2
1662 40 1
1662 52 1
1662 65 1
1662 66 1
1662 75 3
1662 84 1
1662 86 1
1662 90 1
1662 150 2
1662 159 1
1662 203 1
1662 234 1
1662 254 2
1662 279 2
1662 286 1
1662 309 1
1662 360 1
1662 423 2
1662 443 1
1662 506 1
1662 531 1
1662 548 1
1662 645 1
1662 660 2
1662 705 2
1662 709 1
1662 763 1
1662 774 1
1662 775 4
1662 843 1
1662 872 1
1662 998 1
1662 1072 1
1662 1128 2
1662 1192 1
1662 1258 3
1662 1267 1
1663 27 1
1663 41 1
1663 173 1
1663 185 1
1663 323 1
1663 331 1
1663 338 1
1663 423 1
1663 442 1
1663 458 2
1663 576 1
1663 754 2
1663 827 1
1663 902 3
1663 1261 1
1664 5 1
1664 34 2
1664 82 2
1664 143 1
1664 192 1
1664 218 2
1664 254 3
1664 274 1
1664 286 1
1664 410 2
1664 460 9
1664 559 1
1664 820 2
1664 1009 5
1665 5 1
1665 21 4
1665 54 6
1665 75 1
1665 81 3
1665 86 2
1665 116 1
1665 139 9
1665 157 4
1665 161 1
1665 167 11
1665 179 1
1665 186 1
1665 238 12
1665 269 5
1665 285 1
1665 298 1
1665 299 1
1665 363 6
1665 372 1
1665 377 1
1665 385 3
1665 405 1
1665 409 1
1665 463 10
1665 490 4
1665 495 1
1665 497 1
1665 538 2
1665 539 1
1665 571 1
1665 584 3
1665 655 1
1665 658 1
1665 711 1
1666 80 1
1666 167 2
1666 286 1
1666 300 6
1666 306 1
1666 307 3
1666 371 1
1666 378 2
1666 437 5
1666 812 2
1666 821 1
1667 41 1
1667 52 1
1667 73 1
1667 76 1
1667 160 1
1667 167 1
1667 169 1
1667 183 2
1667 189 1
1667 195 1
1667 258 1
1667 266 1
1667 278 1
1667 283 1
1667 312 3
1667 331 1
1667 342 1
1667 685 2
1667 687 3
1667 761 2
1667 822 1
1667 932 3
1667 1002 1
1667 1007 2
1667 1157 1
1667 1165 4
1667 1216 3
1668 1 4
1668 2 2
1668 31 1
1668 35 1
1668 91 1
1668 115 2
1668 143 1
1668 172 1
1668 214 1
1668 224 1
1668 250 1
1668 251 1
1668 302 1
1668 364 1
1668 389 1
1668 405 2
1668 589 1
1668 694 2
1668 712 8
1668 718 1
1668 900 1
1668 959 1
1668 995 1
1668 1084 2
1668 1088 1
1668 1101 2
1668 1138 1
1668 1164 2
1668 1203 1
1668 1242 1
1668 1264 4
1669 1 1
1669 5 1
1669 29 4
1669 32 4
1669 66 1
1669 109 1
1669 131 1
1669 175 2
1669 185 1
1669 195 1
1669 232 2
1669 311 3
1669 364 2
1669 378 1
1669 396 1
1669 526 1
1669 560 1
1669 627 1
1669 876 1
1669 879 1
1669 903 1
1669 1011 1
1669 1017 1
1669 1061 1
1669 1084 1
1669 1113 2
1669 1123 1
1669 1181 2
1669 1193 1
1670 9 4
1670 44 1
1670 52 1
1670 53 1
1670 78 1
1670 80 1
1670 81 1
1670 149 2
1670 151 1
1670 160 1
1670 164 1
1670 169 1
1670 183 1
1670 185 1
1670 229 1
1670 240 1
1670 258 1
1670 265 1
1670 312 1
1670 331 1
1670 356 1
1670 371 1
1670 388 1
1670 393 1
1670 428 1
1670 442 1
1670 444 4
1670 470 1
1670 504 1
1670 505 1
1670 660 1
1670 719 2
1670 797 1
1670 822 1
1670 876 1
1670 997 1
1670 1040 1
1670 1142 1
1670 1165 2
1670 1188 1
1670 1215 1
1670 1247 1
1670 1262 1
1670 1334 1
1671 34 7
1671 82 1
1671 87 1
1671 95 2
1671 153 2
1671 179 1
1671 186 1
1671 385 1
1671 405 1
1671 477 1
1671 490 2
1671 494 1
1671 508 2
1671 640 2
1671 692 1
1671 869 3
1671 880 3
1671 1069 1
1671 1177 3
1671 1238 1
1671 1252 1
1671 1291 1
1672 19 1
1672 25 1
1672 29 2
1672 32 1
1672 45 3
1672 82 1
1672 87 4
1672 127 3
1672 175 2
1672 220 1
1672 336 1
1672 351 3
1672 697 6
1672 719 1
1672 834 1
1672 1109 1
1673 10 1
1673 25 1
1673 35 1
1673 44 1
1673 53 1
1673 143 1
1673 146 1
1673 153 5
1673 229 1
1673 244 3
1673 311 2
1673 323 1
1673 379 2
1673 422 1
1673 446 2
1673 650 2
1673 705 1
1673 764 1
1673 770 2
1673 910 2
1673 949 1
1673 1190 1
1674 29 1
1674 52 3
1674 65 1
1674 73 1
1674 109 2
1674 141 1
1674 156 2
1674 234 1
1674 241 1
1674 267 1
1674 282 2
1674 291 1
1674 363 1
1674 426 1
1674 470 1
1674 541 2
1674 634 1
1674 649 1
1674 712 1
1674 846 1
1674 966 1
1674 1032 2
1674 1045 1
1674 1101 1
1674 1131 1
1674 1137 1
1675 34 2
1675 76 1
1675 178 1
1675 225 1
1675 301 1
1675 302 1
1675 318 1
1675 406 1
1675 471 2
1675 477 3
1675 484 2
1675 530 2
1675 576 1
1675 618 1
1675 635 1
1675 653 4
1675 680 1
1675 686 1
1675 692 3
1675 723 2
1675 797 1
1675 814 8
1675 852 1
1675 869 1
1675 939 1
1675 968 2
1675 1097 2
1675 1261 2
1676 1 1
1676 2 1
1676 21 1
1676 25 5
1676 82 1
1676 90 1
1676 237 1
1676 257 4
1676 260 4
1676 266 2
1676 273 2
1676 274 1
1676 281 2
1676 283 1
1676 285 1
1676 301 1
1676 379 1
1676 442 1
1676 446 2
1676 477 1
1676 558 1
1676 561 1
1676 644 3
1676 685 3
1676 810 5
1676 953 1
1676 956 1
1676 961 1
1676 1007 9
1676 1062 1
1676 1094 2
1676 1180 1
1676 1211 1
1677 77 1
1677 80 2
1677 109 1
1677 127 5
1677 159 1
1677 185 1
1677 192 1
1677 315 1
1677 332 1
1677 343 1
1677 440 1
1677 471 1
1677 515 1
1677 627 6
1677 692 1
1677 843 7
1677 1014 1
1678 39 1
1678 52 1
1678 80 1
1678 115 2
1678 117 2
1678 143 3
1678 146 1
1678 149 1
1678 153 1
1678 254 1
1678 266 1
1678 326 1
1678 381 1
1678 443 2
1678 514 1
1678 553 2
1678 624 2
1678 645 1
1678 650 1
1678 675 1
1678 682 2
1678 697 2
1678 775 1
1678 833 2
1678 844 1
1678 903 1
1678 1072 2
1678 1090 1
1678 1104 1
1679 14 1
1679 50 2
1679 80 1
1679 88 1
1679 115 1
1679 119 3
1679 153 1
1679 164 2
1679 169 1
1679 170 1
1679 187 1
1679 252 3
1679 257 2
1679 302 3
1679 319 1
1679 375 1
1679 397 1
1679 471 1
1679 484 2
1679 489 2
1679 498 1
1679 506 1
1679 662 2
1679 672 1
1679 701 1
1679 736 1
1679 869 2
1679 880 1
1679 970 1
1679 1069 4
1679 1177 1
1679 1212 1
1679 1256 1
1680 10 2
1680 21 2
1680 25 2
1680 49 2
1680 70 1
1680 92 1
1680 102 1
1680 143 2
1680 150 3
1680 153 2
1680 158 2
1680 162 1
1680 279 1
1680 303 1
1680 358 1
1680 382 1
1680 412 1
1680 423 1
1680 443 1
1680 446 1
1680 482 1
1680 608 1
1680 645 1
1680 697 4
1680 705 1
1680 732 1
1680 791 1
1680 882 1
1680 947 1
1680 1043 1
1680 1214 1
1680 1234 1
1680 1258 1
1680 1297 1
1681 5 1
1681 21 1
1681 48 4
1681 115 1
1681 119 1
1681 130 1
1681 147 3
1681 150 1
1681 153 5
1681 163 2
1681 205 1
1681 257 4
1681 267 1
1681 301 4
1681 364 2
1681 471 2
1681 530 1
1681 699 1
1681 705 2
1681 712 2
1681 732 5
1681 931 1
1681 1099 1
1681 1110 1
1681 1145 1
1682 80 1
1682 93 1
1682 171 1
1682 266 1
1682 300 1
1682 378 6
1682 426 1
1682 427 1
1682 437 1
1682 612 1
1682 800 1
1682 1129 1
1683 49 1
1683 50 1
1683 65 1
1683 70 1
1683 75 1
1683 79 1
1683 80 1
1683 84 3
1683 87 1
1683 286 2
1683 321 1
1683 372 1
1683 378 1
1683 379 5
1683 597 3
1683 613 1
1683 645 1
1683 650 1
1683 670 1
1683 833 3
1683 840 1
1683 1160 1
1684 9 1
1684 41 1
1684 80 1
1684 86 1
1684 119 3
1684 133 2
1684 134 1
1684 153 2
1684 169 1
1684 175 1
1684 188 1
1684 240 1
1684 257 1
1684 388 1
1684 410 2
1684 442 1
1684 542 1
1684 580 1
1684 661 2
1684 674 1
1684 685 1
1684 703 1
1684 759 1
1684 836 1
1684 873 1
1685 27 1
1685 32 1
1685 45 4
1685 57 1
1685 60 1
1685 71 1
1685 119 1
1685 153 1
1685 249 2
1685 257 2
1685 318 1
1685 335 1
1685 336 1
1685 366 1
1685 375 1
1685 419 3
1685 442 1
1685 445 1
1685 446 2
1685 492 2
1685 494 1
1685 530 4
1685 585 1
1685 629 1
1685 644 1
1685 648 1
1685 692 2
1685 835 1
1685 843 1
1685 850 2
1685 866 2
1685 903 1
1685 958 1
1685 961 1
1685 977 1
1685 1009 1
1685 1050 1
1685 1127 1
1685 1150 1
1685 1177 2
1685 1180 1
1685 1220 2
1686 27 1
1686 32 1
1686 34 2
1686 50 1
1686 75 2
1686 82 1
1686 84 4
1686 86 1
1686 119 1
1686 153 2
1686 177 1
1686 198 3
1686 257 4
1686 327 1
1686 338 1
1686 410 1
1686 460 1
1686 471 1
1686 477 2
1686 522 1
1686 553 1
1686 556 1
1686 644 1
1686 660 1
1686 692 1
1686 697 2
1686 729 1
1686 793 1
1686 869 1
1686 932 1
1686 959 2
1686 1101 1
1686 1109 1
1686 1177 1
1686 1237 2
1687 21 1
1687 35 3
1687 50 1
1687 67 1
1687 70 1
1687 72 1
1687 87 1
1687 141 1
1687 153 1
1687 178 1
1687 225 1
1687 234 2
1687 319 1
1687 375 1
1687 468 1
1687 499 1
1687 528 1
1687 591 1
1687 625 1
1687 685 7
1687 775 3
1687 1068 1
1687 1217 1
1687 1232 2
1688 32 1
1688 45 1
1688 76 1
1688 95 1
1688 107 1
1688 117 1
1688 170 2
1688 177 1
1688 190 1
1688 234 1
1688 257 2
1688 275 1
1688 286 1
1688 332 1
1688 375 1
1688 405 1
1688 442 1
1688 514 1
1688 647 2
1688 679 1
1688 692 1
1688 891 1
1688 936 1
1688 1056 1
1688 1164 3
1688 1177 1
1688 1211 1
1689 1 4
1689 3 2
1689 10 1
1689 28 1
1689 29 2
1689 32 1
1689 45 1
1689 52 1
1689 70 1
1689 75 1
1689 86 1
1689 98 1
1689 108 2
1689 116 1
1689 139 1
1689 153 1
1689 229 1
1689 254 4
1689 285 1
1689 317 1
1689 332 1
1689 338 1
1689 363 1
1689 464 1
1689 495 1
1689 512 1
1689 515 2
1689 555 1
1689 572 2
1689 584 2
1689 658 1
1689 680 1
1689 718 1
1689 720 1
1689 772 1
1689 805 2
1689 845 1
1689 1182 1
1689 1183 1
1689 1218 1
1689 1299 5
1689 1327 4
1689 1328 3
1689 1329 3
1689 1331 1
1689 1341 1
1689 1342 2
1690 75 1
1690 127 1
1690 142 1
1690 143 1
1690 167 4
1690 168 1
1690 176 1
1690 179 6
1690 266 1
1690 306 6
1690 313 1
1690 323 1
1690 336 1
1690 387 1
1690 660 1
1690 706 2
1690 740 1
1690 752 1
1690 821 1
1690 951 1
1690 1098 2
1691 9 3
1691 70 3
1691 81 1
1691 117 1
1691 119 1
1691 141 1
1691 153 1
1691 234 2
1691 312 4
1691 331 2
1691 442 1
1691 471 1
1691 541 1
1691 581 1
1691 665 7
1691 928 1
1691 930 1
1691 989 3
1691 1188 5
1692 9 1
1692 50 1
1692 169 1
1692 191 1
1692 231 1
1692 258 1
1692 429 1
1692 442 1
1692 454 3
1692 512 1
1692 556 1
1692 613 1
1692 942 2
1692 948 6
1692 953 1
1692 1103 1
1692 1216 3
1692 1330 1
1692 1334 3
1693 8 1
1693 57 1
1693 77 1
1693 78 2
1693 84 1
1693 142 1
1693 153 1
1693 229 2
1693 244 6
1693 301 1
1693 340 2
1693 363 1
1693 429 1
1693 508 2
1693 530 2
1693 576 1
1693 581 1
1693 957 1
1693 1088 1
1693 1119 1
1693 1222 1
1694 5 1
1694 63 1
1694 160 1
1694 169 1
1694 189 1
1694 193 1
1694 226 2
1694 254 1
1694 298 1
1694 327 1
1694 423 1
1694 442 1
1694 550 1
1694 609 1
1694 712 1
1694 749 6
1694 764 1
1694 827 1
1694 829 1
1694 916 1
1694 1081 1
1694 1094 1
1694 1101 1
1694 1128 1
1694 1236 1
1694 1304 1
1695 21 3
1695 25 1
1695 35 1
1695 63 1
1695 65 1
1695 100 1
1695 153 2
1695 225 2
1695 281 1
1695 379 1
1695 443 1
1695 471 1
1695 560 1
1695 846 3
1695 1072 1
1695 1107 1
1695 1304 1
1695 1340 1
1696 1 1
1696 25 2
1696 29 1
1696 84 1
1696 93 1
1696 139 1
1696 179 5
1696 278 1
1696 298 7
1696 364 1
1696 466 1
1696 489 1
1696 631 1
1696 670 1
1696 795 3
1696 800 1
1696 1057 1
1696 1088 1
1696 1321 1
1697 232 1
1697 266 1
1697 286 1
1697 298 1
1697 332 2
1697 517 1
1697 1103 1
1697 1187 1
1697 1333 1
1698 75 4
1698 95 2
1698 110 1
1698 151 1
1698 167 1
1698 226 1
1698 248 1
1698 268 1
1698 299 1
1698 311 1
1698 373 1
1698 433 1
1698 467 1
1698 519 2
1698 635 1
1698 705 3
1698 996 1
1699 45 1
1699 80 2
1699 195 2
1699 226 3
1699 241 1
1699 254 1
1699 277 2
1699 312 1
1699 327 1
1699 335 1
1699 336 1
1699 426 2
1699 434 1
1699 461 1
1699 466 1
1699 512 3
1699 547 1
1699 705 2
1699 804 1
1699 1137 1
1699 1206 2
1700 41 1
1700 45 1
1700 60 1
1700 104 1
1700 130 1
1700 149 1
1700 153 1
1700 157 1
1700 158 1
1700 167 2
1700 189 1
1700 206 3
1700 229 1
1700 238 1
1700 254 6
1700 298 1
1700 302 1
1700 306 1
1700 311 1
1700 325 1
1700 343 4
1700 364 1
1700 410 1
1700 543 1
1700 560 1
1700 626 1
1700 645 1
1700 666 1
1700 719 1
1700 730 1
1700 864 2
1700 910 4
1700 1058 1
1700 1121 1
1700 1297 1
1701 1 1
1701 21 3
1701 28 1
1701 143 1
1701 150 3
1701 153 5
1701 179 1
1701 204 1
1701 226 1
1701 298 1
1701 300 1
1701 568 1
1701 601 1
1701 652 4
1701 1258 2
1701 1305 1
1702 1 2
1702 3 3
1702 13 1
1702 29 3
1702 39 2
1702 52 1
1702 62 2
1702 66 4
1702 70 2
1702 117 4
1702 170 4
1702 201 1
1702 214 1
1702 238 1
1702 274 1
1702 285 1
1702 372 1
1702 388 3
1702 412 4
1702 426 1
1702 471 1
1702 495 1
1702 768 4
1702 981 1
1702 1083 1
1702 1112 4
1703 9 1
1703 75 1
1703 92 1
1703 153 1
1703 181 1
1703 192 2
1703 254 1
1703 258 1
1703 274 1
1703 286 1
1703 305 2
1703 373 1
1703 429 1
1703 840 12
1703 1157 1
1703 1330 1
1704 16 1
1704 294 1
1704 298 2
1704 378 1
1704 437 3
1704 462 2
1704 543 1
1704 642 1
1704 682 3
1704 718 1
1704 724 3
1704 739 1
1704 899 3
1704 1088 1
1704 1119 4
1705 45 1
1705 85 1
1705 98 1
1705 176 1
1705 206 3
1705 264 2
1705 277 2
1705 285 1
1705 334 3
1705 364 1
1705 370 1
1705 384 1
1705 401 2
1705 441 3
1705 465 1
1705 471 2
1705 473 6
1705 522 2
1705 543 1
1705 580 2
1705 606 2
1705 612 1
1705 716 1
1705 780 1
1706 21 1
1706 25 4
1706 45 2
1706 75 4
1706 141 1
1706 153 1
1706 172 1
1706 189 1
1706 195 1
1706 229 1
1706 257 1
1706 294 1
1706 302 1
1706 331 3
1706 332 1
1706 337 1
1706 345 1
1706 442 2
1706 530 3
1706 567 1
1706 670 2
1706 903 1
1706 1233 2
1707 21 1
1707 25 3
1707 29 3
1707 35 3
1707 44 1
1707 82 1
1707 86 1
1707 87 2
1707 114 1
1707 159 3
1707 288 2
1707 301 1
1707 302 1
1707 335 2
1707 356 1
1707 377 3
1707 378 4
1707 379 1
1707 581 1
1707 1180 1
1708 1 1
1708 9 1
1708 27 1
1708 35 1
1708 37 1
1708 70 1
1708 72 1
1708 73 1
1708 164 1
1708 169 2
1708 197 1
1708 226 1
1708 231 1
1708 258 1
1708 302 1
1708 312 1
1708 375 1
1708 531 1
1708 585 1
1708 632 1
1708 655 1
1708 712 1
1708 729 1
1708 761 1
1708 773 1
1708 1114 1
1708 1133 1
1708 1138 1
1708 1142 1
1708 1165 2
1708 1215 1
1708 1216 3
1708 1262 1
1708 1302 6
1709 11 1
1709 21 1
1709 35 1
1709 250 2
1709 368 2
1709 390 1
1709 405 2
1709 413 1
1709 446 1
1709 488 2
1709 544 2
1709 561 3
1709 562 2
1709 653 1
1709 661 1
1709 683 1
1709 685 1
1709 1090 1
1709 1099 1
1709 1137 1
1709 1190 7
1709 1208 3
1709 1306 1
1710 3 5
1710 7 1
1710 10 1
1710 19 1
1710 21 4
1710 86 1
1710 94 1
1710 147 1
1710 221 1
1710 301 2
1710 592 1
1710 654 1
1710 692 1
1710 773 1
1710 843 2
1710 876 1
1710 1197 1
1710 1308 1
1710 1309 1
1711 3 1
1711 70 1
1711 91 1
1711 95 1
1711 161 1
1711 162 1
1711 163 2
1711 218 2
1711 222 1
1711 264 4
1711 277 1
1711 569 1
1711 645 4
1711 655 1
1711 1228 1
1712 27 2
1712 29 2
1712 35 1
1712 52 1
1712 62 1
1712 150 1
1712 183 1
1712 221 1
1712 281 2
1712 289 1
1712 302 1
1712 316 1
1712 334 1
1712 372 1
1712 453 3
1712 514 1
1712 530 1
1712 562 1
1712 566 1
1712 637 2
1712 662 1
1712 685 1
1712 705 1
1712 864 1
1712 927 1
1712 999 1
1712 1000 1
1712 1007 3
1712 1083 1
1712 1084 1
1712 1194 1
1712 1201 2
1712 1203 1
1712 1267 1
1713 5 1
1713 12 1
1713 21 3
1713 35 3
1713 59 4
1713 62 1
1713 82 1
1713 86 1
1713 87 1
1713 94 1
1713 122 1
1713 153 5
1713 187 2
1713 215 3
1713 254 1
1713 257 1
1713 375 1
1713 383 1
1713 419 5
1713 429 3
1713 442 7
1713 530 1
1713 589 1
1713 595 1
1713 600 1
1713 673 4
1713 711 1
1713 817 1
1713 1052 1
1713 1088 1
1713 1150 1
1713 1165 1
1713 1309 1
1714 52 1
1714 70 5
1714 79 2
1714 87 1
1714 91 5
1714 92 2
1714 143 2
1714 157 1
1714 160 2
1714 251 1
1714 286 1
1714 289 2
1714 417 1
1714 442 1
1714 562 1
1714 613 1
1714 712 1
1714 766 1
1714 1146 1
1714 1147 1
1715 1 1
1715 45 2
1715 53 1
1715 70 1
1715 73 1
1715 76 1
1715 80 7
1715 82 2
1715 178 1
1715 179 1
1715 187 1
1715 226 2
1715 252 1
1715 266 1
1715 315 1
1715 363 1
1715 415 2
1715 466 3
1715 475 3
1715 546 1
1715 547 1
1715 705 1
1715 710 1
1715 753 1
1715 844 4
1715 971 2
1715 1009 2
1715 1020 1
1715 1109 1
1716 21 2
1716 27 4
1716 50 3
1716 65 1
1716 81 1
1716 186 1
1716 211 1
1716 212 1
1716 292 1
1716 303 1
1716 318 1
1716 332 1
1716 356 1
1716 442 2
1716 460 1
1716 477 1
1716 506 3
1716 556 1
1716 607 1
1716 645 3
1716 648 1
1716 685 1
1716 705 2
1716 937 1
1716 953 1
1716 1007 1
1716 1011 1
1716 1036 1
1716 1046 1
1716 1090 1
1716 1119 1
1716 1274 1
1716 1294 1
1716 1326 1
1717 21 1
1717 52 1
1717 75 3
1717 76 3
1717 178 2
1717 186 1
1717 188 3
1717 256 1
1717 326 1
1717 340 1
1717 354 1
1717 375 1
1717 468 1
1717 489 1
1717 711 1
1717 737 1
1717 812 1
1717 840 3
1718 1 2
1718 32 1
1718 94 1
1718 105 1
1718 139 4
1718 153 1
1718 167 2
1718 172 1
1718 234 1
1718 252 1
1718 298 2
1718 309 2
1718 319 2
1718 327 2
1718 359 3
1718 458 2
1718 515 1
1718 652 2
1718 655 1
1718 673 1
1718 800 2
1718 822 1
1719 24 1
1719 75 2
1719 76 1
1719 80 2
1719 88 1
1719 90 1
1719 141 1
1719 178 1
1719 186 2
1719 192 9
1719 307 2
1719 311 1
1719 379 1
1719 413 1
1719 416 1
1719 526 1
1719 627 1
1719 675 1
1719 1009 1
1719 1123 1
1719 1330 1
1720 27 1
1720 45 1
1720 76 1
1720 80 7
1720 96 1
1720 139 1
1720 157 1
1720 172 1
1720 183 1
1720 190 1
1720 199 1
1720 226 1
1720 240 1
1720 254 1
1720 259 1
1720 283 1
1720 286 5
1720 329 1
1720 434 1
1720 464 1
1720 638 1
1720 801 1
1720 1321 1
1721 44 1
1721 55 2
1721 142 1
1721 171 1
1721 175 1
1721 220 2
1721 250 1
1721 273 1
1721 283 1
1721 286 3
1721 289 1
1721 319 1
1721 382 1
1721 387 1
1721 429 1
1721 512 1
1721 517 1
1721 594 3
1721 821 2
1721 823 1
1721 848 1
1721 932 1
1721 1132 1
1721 1135 1
1721 1236 14
1721 1297 1
1722 9 1
1722 61 1
1722 76 1
1722 80 3
1722 91 2
1722 92 1
1722 154 1
1722 160 5
1722 175 1
1722 258 1
1722 310 1
1722 386 1
1722 422 3
1722 427 1
1722 429 1
1722 431 1
1722 470 1
1722 505 1
1722 512 1
1722 530 1
1722 589 2
1722 647 1
1722 678 1
1722 685 2
1722 705 1
1722 722 1
1722 737 1
1722 769 1
1722 841 1
1722 862 1
1722 892 1
1722 1097 1
1722 1103 1
1722 1216 1
1722 1231 1
1722 1300 5
1723 1 1
1723 7 1
1723 25 2
1723 29 1
1723 52 1
1723 70 5
1723 80 10
1723 81 1
1723 90 2
1723 109 1
1723 116 1
1723 148 3
1723 158 1
1723 160 2
1723 187 1
1723 192 1
1723 234 1
1723 254 1
1723 306 5
1723 364 1
1723 375 1
1723 382 1
1723 387 1
1723 534 1
1723 546 1
1723 635 1
1723 685 7
1723 736 1
1723 837 1
1723 919 1
1723 971 2
1723 1007 1
1723 1151 1
1723 1228 1
1723 1279 4
1723 1295 1
1723 1334 1
1724 1 3
1724 27 1
1724 37 1
1724 81 1
1724 83 2
1724 90 1
1724 186 1
1724 189 1
1724 195 1
1724 345 3
1724 388 1
1724 410 1
1724 476 2
1724 488 1
1724 555 1
1724 578 1
1724 632 1
1724 645 1
1724 655 1
1724 712 3
1724 751 1
1724 822 1
1724 832 1
1724 868 1
1724 945 1
1724 1049 1
1724 1138 1
1725 1 2
1725 50 3
1725 60 4
1725 122 1
1725 178 1
1725 192 1
1725 212 2
1725 214 2
1725 215 1
1725 364 2
1725 382 1
1725 389 2
1725 394 1
1725 462 3
1725 527 2
1725 562 1
1725 692 2
1725 788 1
1725 892 2
1725 904 2
1725 906 1
1725 1007 5
1725 1061 1
1725 1086 1
1725 1102 9
1725 1200 1
1725 1244 1
1725 1338 1
1726 1 1
1726 16 1
1726 21 1
1726 25 7
1726 29 1
1726 86 1
1726 91 1
1726 110 1
1726 149 1
1726 153 4
1726 234 1
1726 254 1
1726 283 1
1726 342 1
1726 379 3
1726 775 1
1726 855 1
1726 1185 2
1726 1296 1
1727 25 1
1727 29 7
1727 39 3
1727 44 1
1727 167 2
1727 206 4
1727 233 6
1727 299 2
1727 332 1
1727 495 1
1727 512 1
1727 1198 1
1728 35 1
1728 50 1
1728 53 1
1728 72 1
1728 87 1
1728 153 1
1728 160 1
1728 183 1
1728 214 1
1728 226 1
1728 333 1
1728 389 1
1728 462 1
1728 512 2
1728 589 1
1728 647 1
1728 660 1
1728 685 5
1728 806 1
1728 810 1
1728 822 1
1728 848 1
1728 862 1
1728 876 2
1728 1007 4
1728 1074 1
1728 1112 1
1728 1138 1
1728 1244 1
1728 1246 1
1729 1 3
1729 34 4
1729 55 2
1729 175 2
1729 187 2
1729 227 1
1729 232 1
1729 266 1
1729 267 1
1729 312 1
1729 375 1
1729 465 1
1729 477 4
1729 484 4
1729 595 2
1729 619 1
1729 692 1
1729 814 3
1729 823 1
1729 1118 1
1729 1138 1
1729 1177 2
1729 1252 1
1729 1261 6
1730 46 1
1730 50 1
1730 88 2
1730 141 2
1730 161 1
1730 167 6
1730 202 1
1730 215 1
1730 254 7
1730 291 3
1730 293 1
1730 306 1
1730 385 1
1730 540 1
1730 554 1
1730 573 1
1730 658 1
1730 744 1
1731 1 1
1731 9 6
1731 29 2
1731 40 2
1731 41 1
1731 44 1
1731 52 1
1731 57 1
1731 70 2
1731 76 2
1731 81 9
1731 92 1
1731 98 2
1731 100 3
1731 141 4
1731 143 1
1731 149 1
1731 153 4
1731 160 1
1731 169 6
1731 185 1
1731 257 1
1731 258 1
1731 262 1
1731 311 2
1731 332 1
1731 345 1
1731 410 2
1731 418 1
1731 428 1
1731 429 1
1731 446 3
1731 470 1
1731 516 1
1731 614 1
1731 617 1
1731 634 1
1731 642 1
1731 650 4
1731 660 1
1731 670 1
1731 701 1
1731 737 1
1731 743 3
1731 744 1
1731 802 1
1731 824 1
1731 835 1
1731 1042 1
1731 1065 1
1731 1174 1
1731 1188 4
1731 1262 2
1731 1298 1
1731 1307 1
1732 41 1
1732 86 5
1732 153 1
1732 267 1
1732 358 5
1732 363 1
1732 426 1
1732 722 1
1732 1134 1
1732 1211 1
1733 80 1
1733 157 1
1733 240 1
1733 283 6
1733 302 1
1733 313 8
1733 466 1
1733 550 1
1733 840 7
1733 1062 1
1733 1330 1
1734 11 1
1734 104 1
1734 116 1
1734 147 2
1734 149 1
1734 167 1
1734 202 1
1734 226 1
1734 267 1
1734 325 1
1734 340 1
1734 398 1
1734 419 1
1734 440 2
1734 531 3
1734 589 3
1734 678 2
1734 712 5
1734 844 1
1734 875 1
1734 919 1
1734 1007 1
1734 1031 1
1734 1143 1
1734 1201 1
1734 1264 1
1734 1313 1
1734 1317 2
1734 1318 1
1735 1 1
1735 21 1
1735 25 1
1735 35 1
1735 52 1
1735 81 1
1735 153 2
1735 286 2
1735 405 1
1735 595 1
1735 682 3
1735 767 1
1735 773 1
1735 916 1
1735 1024 1
1735 1221 2
1735 1230 2
1736 5 3
1736 52 3
1736 90 4
1736 117 1
1736 168 1
1736 184 1
1736 265 1
1736 326 1
1736 364 1
1736 428 1
1736 429 1
1736 475 3
1736 751 7
1736 773 4
1736 900 1
1736 1096 1
1736 1203 1
1736 1247 1
1736 1262 1
1737 5 2
1737 25 2
1737 28 1
1737 65 2
1737 76 1
1737 80 2
1737 109 1
1737 139 1
1737 154 2
1737 157 1
1737 286 3
1737 298 1
1737 303 4
1737 312 1
1737 325 1
1737 336 1
1737 394 1
1737 426 1
1737 803 1
1737 1052 1
1737 1091 1
1737 1109 1
1738 9 1
1738 25 2
1738 142 1
1738 143 1
1738 149 2
1738 153 1
1738 169 3
1738 186 3
1738 189 1
1738 204 1
1738 216 1
1738 229 2
1738 244 1
1738 249 1
1738 250 1
1738 261 1
1738 278 1
1738 302 1
1738 379 1
1738 551 3
1738 602 1
1738 613 1
1738 660 1
1738 685 1
1738 717 6
1738 721 1
1738 780 1
1738 784 1
1738 958 1
1738 1043 3
1738 1096 2
1738 1157 3
1738 1165 2
1738 1216 1
1738 1297 1
1738 1301 1
1739 27 1
1739 35 1
1739 60 1
1739 80 1
1739 92 1
1739 104 1
1739 157 2
1739 164 2
1739 187 3
1739 212 1
1739 216 1
1739 281 2
1739 302 1
1739 325 1
1739 371 2
1739 530 1
1739 660 1
1739 676 3
1739 683 1
1739 685 8
1739 719 1
1739 740 2
1739 995 1
1739 1021 1
1739 1028 1
1739 1064 2
1739 1065 1
1740 40 2
1740 64 1
1740 76 1
1740 108 2
1740 109 1
1740 130 2
1740 153 2
1740 192 3
1740 201 1
1740 238 1
1740 286 1
1740 327 1
1740 364 2
1740 388 1
1740 425 1
1740 445 1
1740 454 1
1740 495 1
1740 592 1
1740 673 1
1740 764 1
1740 1077 6
1740 1145 1
1740 1196 1
1741 25 2
1741 81 1
1741 85 1
1741 94 1
1741 105 1
1741 143 2
1741 280 4
1741 294 1
1741 359 1
1741 382 1
1741 528 3
1741 596 2
1741 612 1
1741 769 1
1741 848 1
1742 39 1
1742 50 1
1742 120 2
1742 150 1
1742 153 1
1742 182 2
1742 249 1
1742 553 1
1742 645 5
1742 649 1
1742 833 2
1742 1011 3
1742 1012 1
1742 1090 3
1742 1234 2
1742 1281 1
1742 1339 1
1743 1 3
1743 35 1
1743 72 3
1743 73 1
1743 85 3
1743 168 2
1743 179 1
1743 184 1
1743 212 1
1743 221 2
1743 226 1
1743 229 1
1743 254 1
1743 286 1
1743 345 3
1743 364 1
1743 527 1
1743 550 5
1743 648 1
1743 685 1
1743 731 2
1743 777 1
1743 825 2
1743 900 1
1743 945 2
1743 971 1
1743 1106 2
1743 1137 3
1743 1192 1
1743 1203 4
1743 1207 1
1743 1283 1
1743 1304 2
1743 1340 1
1744 61 2
1744 81 1
1744 192 1
1744 243 4
1744 257 1
1744 259 1
1744 302 1
1744 366 1
1744 375 1
1744 418 1
1744 422 1
1744 567 1
1744 579 2
1744 635 2
1744 647 1
1744 648 2
1744 649 1
1744 678 1
1744 701 1
1744 712 1
1744 720 2
1744 821 1
1744 844 2
1744 866 5
1744 875 1
1744 914 3
1744 932 1
1744 1028 1
1744 1182 2
1744 1193 1
1744 1203 1
1744 1224 1
1745 1 3
1745 32 1
1745 152 1
1745 169 2
1745 193 1
1745 245 2
1745 248 1
1745 278 1
1745 303 1
1745 331 1
1745 347 1
1745 384 1
1745 431 1
1745 512 3
1745 530 2
1745 549 1
1745 559 1
1745 593 1
1745 605 1
1745 652 1
1745 705 1
1745 843 5
1745 848 1
1745 858 1
1745 908 1
1745 1152 1
1746 139 5
1746 153 1
1746 277 1
1746 278 1
1746 313 6
1746 418 2
1746 442 1
1746 503 2
1746 574 1
1746 633 1
1746 641 1
1746 713 1
1746 800 1
1746 1330 1
1747 35 2
1747 80 5
1747 90 5
1747 129 1
1747 192 2
1747 285 1
1747 332 5
1747 360 1
1747 375 1
1747 705 2
1747 795 2
1748 1 1
1748 5 1
1748 21 1
1748 32 1
1748 117 1
1748 146 1
1748 153 4
1748 215 1
1748 266 1
1748 278 1
1748 279 1
1748 340 1
1748 422 1
1748 737 1
1748 768 1
1748 775 1
1748 777 1
1748 788 1
1748 794 1
1748 811 1
1748 844 1
1748 1106 1
1748 1146 1
1748 1179 1
1748 1206 1
1749 6 1
1749 44 1
1749 87 1
1749 192 2
1749 203 7
1749 241 1
1749 246 1
1749 280 12
1749 282 1
1749 283 1
1749 349 1
1749 354 2
1749 415 1
1749 572 4
1749 707 1
1749 775 3
1749 880 1
1749 908 1
1749 909 1
1749 1038 1
1749 1089 1
1749 1140 4
1749 1183 2
1749 1218 1
1749 1327 3
1749 1328 3
1749 1329 2
1749 1331 1
1749 1341 1
1749 1342 2
1750 28 1
1750 32 1
1750 50 4
1750 88 5
1750 91 1
1750 95 3
1750 98 2
1750 117 1
1750 202 1
1750 207 1
1750 254 1
1750 257 3
1750 266 1
1750 351 5
1750 413 1
1750 442 1
1750 460 1
1750 556 1
1750 672 1
1750 797 2
1750 963 1
1750 1019 1
1750 1204 1
1750 1210 1
1750 1245 1
1751 34 4
1751 50 3
1751 62 1
1751 70 1
1751 80 2
1751 95 1
1751 119 1
1751 151 1
1751 153 1
1751 160 4
1751 163 1
1751 192 1
1751 272 1
1751 301 1
1751 302 1
1751 314 1
1751 336 1
1751 410 1
1751 415 1
1751 489 2
1751 512 1
1751 632 2
1751 653 2
1751 660 1
1751 692 10
1751 814 1
1751 844 1
1751 888 1
1751 1046 1
1751 1069 1
1751 1127 1
1751 1177 1
1751 1256 1
1752 1 1
1752 25 1
1752 52 1
1752 81 1
1752 84 1
1752 85 1
1752 86 1
1752 100 1
1752 111 1
1752 150 1
1752 162 1
1752 225 1
1752 249 3
1752 377 1
1752 381 1
1752 413 2
1752 446 3
1752 511 1
1752 528 5
1752 556 1
1752 673 1
1752 723 1
1752 791 1
1752 792 1
1752 794 3
1752 924 4
1752 925 4
1752 930 2
1752 1122 1
1752 1213 2
1752 1254 1
1752 1339 1
1753 10 2
1753 16 1
1753 21 1
1753 35 2
1753 89 2
1753 153 2
1753 286 1
1753 364 1
1753 409 1
1753 414 1
1753 443 2
1753 471 1
1753 591 1
1753 650 1
1753 682 1
1753 767 1
1753 789 2
1753 1024 1
1754 10 1
1754 80 1
1754 85 1
1754 105 1
1754 115 2
1754 153 1
1754 160 1
1754 188 3
1754 260 3
1754 285 1
1754 366 1
1754 446 3
1754 458 1
1754 463 1
1754 528 1
1754 567 1
1754 572 10
1754 1183 1
1754 1264 3
1754 1299 4
1754 1327 1
1754 1328 1
1754 1329 1
1754 1331 2
1754 1342 3
1755 15 1
1755 80 1
1755 119 1
1755 131 1
1755 139 3
1755 153 1
1755 421 2
1755 821 1
1755 1078 1
1755 1217 1
1756 5 1
1756 79 1
1756 80 1
1756 81 1
1756 85 2
1756 87 1
1756 115 1
1756 146 2
1756 153 2
1756 192 1
1756 231 2
1756 260 1
1756 323 1
1756 368 1
1756 471 1
1756 511 1
1756 647 7
1756 697 1
1756 791 1
1756 833 3
1756 959 1
1756 1213 1
1756 1281 1
1757 34 5
1757 41 1
1757 95 2
1757 170 1
1757 171 1
1757 177 1
1757 186 1
1757 257 1
1757 273 1
1757 318 1
1757 415 7
1757 438 1
1757 489 1
1757 636 1
1757 653 4
1757 672 1
1757 692 1
1757 814 3
1757 960 1
1757 991 1
1757 1010 1
1757 1043 1
1757 1118 1
1757 1177 1
1757 1220 1
1757 1256 3
1758 34 2
1758 95 1
1758 161 1
1758 187 1
1758 216 1
1758 230 3
1758 339 3
1758 375 1
1758 379 2
1758 409 1
1758 410 1
1758 415 6
1758 473 1
1758 489 1
1758 542 1
1758 556 2
1758 574 1
1758 692 6
1758 719 1
1758 842 3
1758 852 1
1758 921 2
1758 960 2
1758 1091 1
1758 1152 1
1758 1177 1
1758 1256 3
1758 1287 1
1759 175 1
1759 271 1
1759 283 3
1759 336 1
1759 372 1
1759 568 1
1759 627 5
1759 784 1
1759 841 1
1759 958 1
1759 1115 1
1760 1 2
1760 29 1
1760 44 1
1760 50 7
1760 75 3
1760 101 1
1760 156 2
1760 157 2
1760 167 7
1760 191 1
1760 234 2
1760 252 4
1760 273 1
1760 325 1
1760 358 1
1760 477 2
1760 491 2
1760 512 1
1760 632 1
1760 658 1
1760 806 1
1760 852 1
1760 1079 1
1760 1175 1
1760 1222 1
1761 1 2
1761 29 1
1761 76 1
1761 84 1
1761 93 1
1761 98 1
1761 126 1
1761 160 1
1761 175 1
1761 183 1
1761 215 1
1761 254 1
1761 314 1
1761 336 1
1761 345 1
1761 517 1
1761 527 1
1761 630 1
1761 635 1
1761 647 1
1761 770 1
1761 777 1
1761 804 1
1761 837 1
1761 897 1
1761 945 2
1761 1028 1
1761 1165 1
1761 1207 1
1762 9 2
1762 25 2
1762 39 1
1762 40 1
1762 52 1
1762 61 1
1762 72 1
1762 90 3
1762 183 1
1762 212 1
1762 243 1
1762 259 2
1762 271 1
1762 314 2
1762 342 1
1762 345 1
1762 364 1
1762 388 1
1762 518 1
1762 571 1
1762 589 1
1762 629 1
1762 635 1
1762 668 1
1762 678 1
1762 712 2
1762 749 1
1762 751 1
1762 863 1
1762 864 1
1762 887 1
1762 900 1
1762 903 1
1762 916 1
1762 1028 1
1762 1101 1
1762 1203 2
1763 35 3
1763 80 1
1763 85 1
1763 100 1
1763 146 3
1763 150 1
1763 226 1
1763 266 2
1763 285 3
1763 286 1
1763 289 1
1763 327 1
1763 332 1
1763 446 2
1763 514 1
1763 636 1
1763 650 2
1763 718 1
1763 768 1
1763 835 1
1764 21 1
1764 25 1
1764 90 5
1764 134 1
1764 153 1
1764 179 1
1764 212 1
1764 217 1
1764 286 3
1764 302 1
1764 517 1
1764 647 2
1764 685 4
1764 900 1
1764 936 1
1764 945 1
1764 1086 1
1764 1111 4
1764 1320 1
1764 1326 1
1764 1336 1
1765 25 12
1765 52 1
1765 85 2
1765 368 1
1765 382 1
1765 512 2
1765 597 3
1765 647 1
1765 653 1
1765 764 1
1765 864 1
1765 951 1
1765 1055 1
1765 1090 1
1765 1131 1
1765 1190 6
1765 1323 1
1766 67 1
1766 110 1
1766 143 1
1766 158 1
1766 183 1
1766 186 1
1766 214 1
1766 278 1
1766 283 1
1766 286 2
1766 289 1
1766 300 1
1766 364 1
1766 389 1
1766 417 1
1766 423 1
1766 467 1
1766 612 1
1766 617 1
1766 639 1
1766 738 1
1766 835 1
1766 881 1
1766 934 1
1766 1085 1
1767 153 1
1767 232 1
1767 415 1
1767 418 1
1767 503 1
1767 581 1
1767 584 1
1767 650 1
1767 773 1
1767 1054 2
1768 9 5
1768 46 1
1768 64 1
1768 92 1
1768 95 1
1768 102 2
1768 150 1
1768 169 1
1768 175 1
1768 183 1
1768 218 4
1768 325 1
1768 412 1
1768 556 1
1768 595 2
1768 613 1
1768 618 1
1768 672 1
1768 1132 9
1768 1339 1
1769 1 2
1769 45 2
1769 60 2
1769 70 1
1769 109 2
1769 123 1
1769 127 1
1769 139 1
1769 168 1
1769 175 1
1769 178 1
1769 185 2
1769 199 1
1769 244 1
1769 245 1
1769 247 1
1769 267 1
1769 315 2
1769 332 2
1769 333 3
1769 336 1
1769 337 1
1769 343 2
1769 364 1
1769 371 1
1769 456 1
1769 466 1
1769 515 2
1769 583 1
1769 655 3
1769 664 1
1769 671 1
1769 694 1
1769 804 2
1769 903 1
1769 958 1
1769 1052 1
1769 1066 1
1770 16 1
1770 35 1
1770 64 1
1770 87 1
1770 91 2
1770 94 1
1770 115 1
1770 122 1
1770 124 1
1770 150 1
1770 153 5
1770 192 1
1770 260 1
1770 286 1
1770 303 1
1770 443 1
1770 511 1
1770 528 1
1770 553 3
1770 645 2
1770 683 3
1770 697 2
1770 769 1
1770 846 1
1770 1267 2
1770 1305 2
1770 1332 1
1771 14 1
1771 21 2
1771 28 3
1771 50 1
1771 87 1
1771 187 2
1771 190 2
1771 191 2
1771 192 1
1771 211 1
1771 218 3
1771 224 1
1771 254 1
1771 301 2
1771 338 1
1771 340 1
1771 407 2
1771 451 1
1771 460 1
1771 462 1
1771 471 3
1771 660 1
1771 853 1
1771 962 1
1771 1069 1
1771 1164 1
1772 1 1
1772 9 2
1772 13 3
1772 105 1
1772 117 2
1772 122 1
1772 175 1
1772 183 5
1772 184 1
1772 258 1
1772 274 1
1772 284 1
1772 312 1
1772 338 1
1772 393 1
1772 442 1
1772 652 1
1772 660 1
1772 685 4
1772 824 1
1772 862 1
1772 864 1
1772 1228 1
1772 1262 1
1772 1295 6
1772 1336 1
1773 15 2
1773 29 2
1773 45 2
1773 75 2
1773 114 1
1773 138 1
1773 139 8
1773 158 1
1773 237 2
1773 245 1
1773 374 5
1773 376 2
1773 415 1
1773 471 1
1773 512 1
1773 533 1
1773 649 1
1773 800 2
1773 860 1
1774 24 1
1774 27 4
1774 29 1
1774 44 2
1774 75 2
1774 84 6
1774 86 2
1774 95 2
1774 143 1
1774 167 3
1774 175 1
1774 181 1
1774 189 1
1774 274 1
1774 303 3
1774 306 1
1774 319 1
1774 331 1
1774 356 1
1774 412 2
1774 413 4
1774 442 8
1774 491 1
1774 523 3
1774 573 3
1774 835 1
1774 959 1
1775 1 1
1775 50 2
1775 75 1
1775 81 1
1775 98 1
1775 105 2
1775 143 2
1775 227 1
1775 259 1
1775 303 1
1775 393 1
1775 498 2
1775 616 1
1775 669 1
1775 673 1
1775 718 1
1775 992 1
1776 15 4
1776 80 1
1776 114 1
1776 116 1
1776 153 2
1776 179 4
1776 180 1
1776 233 6
1776 285 1
1776 303 1
1776 351 1
1776 364 1
1776 377 1
1776 419 2
1776 442 1
1776 481 5
1776 505 1
1776 515 1
1776 574 1
1776 703 1
1776 727 1
1776 758 3
1776 779 1
1776 859 1
1776 983 1
1776 1222 1
1777 47 1
1777 75 1
1777 109 1
1777 153 1
1777 163 1
1777 195 1
1777 216 2
1777 226 1
1777 238 1
1777 331 1
1777 338 3
1777 350 1
1777 371 1
1777 393 1
1777 421 3
1777 442 1
1777 466 1
1777 515 2
1777 517 5
1777 592 1
1777 658 1
1777 701 1
1777 804 2
1777 843 1
1777 852 1
1777 902 2
1777 1149 1
1778 45 1
1778 75 5
1778 80 1
1778 104 1
1778 108 1
1778 109 1
1778 172 8
1778 176 3
1778 192 3
1778 201 1
1778 212 1
1778 238 1
1778 241 1
1778 252 1
1778 256 1
1778 287 2
1778 338 4
1778 375 1
1778 382 1
1778 444 1
1778 466 1
1778 481 1
1778 530 1
1778 581 1
1778 635 1
1778 670 1
1778 804 1
1778 905 1
1778 931 1
1779 46 1
1779 47 1
1779 75 2
1779 87 5
1779 92 2
1779 95 2
1779 117 2
1779 198 4
1779 215 1
1779 310 1
1779 379 1
1779 438 1
1779 448 2
1779 478 2
1779 484 1
1779 595 1
1779 607 1
1779 614 1
1779 618 1
1779 1003 1
1779 1237 1
1779 1241 1
1780 27 1
1780 101 1
1780 131 1
1780 146 1
1780 192 1
1780 238 1
1780 259 2
1780 266 1
1780 303 1
1780 314 1
1780 315 1
1780 319 1
1780 413 1
1780 442 1
1780 641 1
1780 642 1
1780 721 1
1780 803 1
1780 815 1
1780 846 1
1780 1155 1
1780 1186 1
1781 50 7
1781 65 1
1781 259 1
1781 310 5
1781 326 1
1781 333 1
1781 366 1
1781 371 2
1781 442 1
1781 444 1
1781 471 1
1781 552 2
1781 616 2
1781 669 2
1781 771 1
1781 852 1
1781 954 1
1781 1265 1
1782 1 2
1782 21 3
1782 25 1
1782 35 1
1782 70 1
1782 153 2
1782 170 1
1782 210 1
1782 225 3
1782 479 1
1782 488 1
1782 511 1
1782 574 1
1782 589 1
1782 655 1
1782 1021 1
1782 1024 4
1782 1155 2
1783 1 5
1783 13 1
1783 27 1
1783 32 5
1783 42 4
1783 50 1
1783 86 1
1783 171 2
1783 187 1
1783 220 1
1783 240 1
1783 257 1
1783 264 2
1783 303 1
1783 318 1
1783 336 2
1783 412 1
1783 425 1
1783 442 1
1783 484 1
1783 489 1
1783 574 1
1783 603 1
1783 642 1
1783 645 1
1783 661 1
1783 789 1
1783 797 1
1783 908 1
1783 991 2
1783 1033 1
1783 1155 1
1783 1229 1
1784 7 2
1784 11 1
1784 35 1
1784 80 1
1784 85 2
1784 117 1
1784 146 1
1784 153 1
1784 154 5
1784 168 1
1784 175 1
1784 192 1
1784 260 2
1784 277 2
1784 285 1
1784 359 1
1784 511 1
1784 660 1
1784 764 1
1784 775 1
1784 795 1
1784 928 7
1784 1031 1
1784 1116 1
1784 1126 1
1784 1277 1
1785 10 1
1785 25 3
1785 31 1
1785 45 1
1785 53 1
1785 71 1
1785 75 1
1785 111 1
1785 169 1
1785 192 2
1785 226 3
1785 252 1
1785 278 2
1785 332 1
1785 336 1
1785 338 1
1785 345 1
1785 363 1
1785 398 1
1785 466 1
1785 547 2
1785 583 1
1785 635 1
1785 699 1
1785 787 1
1785 843 1
1785 866 1
1785 902 1
1786 25 4
1786 50 1
1786 63 1
1786 72 1
1786 78 1
1786 119 1
1786 147 2
1786 183 1
1786 226 2
1786 251 1
1786 254 1
1786 382 1
1786 398 2
1786 422 2
1786 465 1
1786 477 1
1786 512 1
1786 570 1
1786 671 1
1786 676 1
1786 685 3
1786 712 1
1786 731 1
1786 822 2
1786 848 1
1786 945 1
1786 954 1
1786 1068 1
1786 1084 1
1786 1096 1
1786 1137 1
1786 1224 1
1786 1232 5
1786 1236 1
1786 1244 2
1786 1246 2
1786 1287 1
1786 1312 1
1786 1317 1
1787 119 1
1787 157 2
1787 167 2
1787 175 1
1787 179 3
1787 257 2
1787 298 2
1787 299 1
1787 385 4
1787 442 1
1787 576 1
1787 658 1
1787 1219 1
1788 45 2
1788 112 3
1788 120 4
1788 172 1
1788 182 1
1788 183 1
1788 213 1
1788 238 1
1788 241 3
1788 244 4
1788 254 1
1788 300 1
1788 311 1
1788 319 1
1788 336 1
1788 688 1
1788 804 1
1788 839 1
1788 931 1
1788 1038 1
1789 21 6
1789 27 2
1789 47 5
1789 64 1
1789 102 1
1789 114 1
1789 218 1
1789 333 1
1789 382 1
1789 414 2
1789 442 6
1789 443 6
1789 478 1
1789 506 10
1789 548 1
1790 50 1
1790 150 1
1790 183 1
1790 241 1
1790 250 1
1790 274 1
1790 300 1
1790 362 1
1790 363 2
1790 412 1
1790 530 1
1790 686 1
1790 1176 1
1791 1 3
1791 5 2
1791 21 5
1791 29 1
1791 45 1
1791 58 1
1791 63 2
1791 65 1
1791 72 3
1791 76 1
1791 90 2
1791 108 1
1791 183 2
1791 226 1
1791 286 5
1791 300 1
1791 302 2
1791 328 2
1791 414 1
1791 429 1
1791 589 6
1791 645 1
1791 655 1
1791 712 1
1791 721 1
1791 773 1
1791 784 2
1791 858 1
1791 868 1
1791 940 4
1791 944 2
1791 1011 1
1791 1106 1
1791 1112 1
1791 1154 1
1791 1156 1
1791 1203 1
1791 1269 1
1791 1302 4
1791 1310 1
1791 1325 1
1792 35 1
1792 82 1
1792 179 1
1792 226 2
1792 289 2
1792 589 1
1792 945 1
1792 1128 3
1792 1203 1
1792 1264 1
1792 1322 2
1793 32 1
1793 45 3
1793 87 1
1793 117 4
1793 127 1
1793 167 4
1793 229 1
1793 234 1
1793 298 1
1793 310 1
1793 332 1
1793 345 1
1793 413 3
1793 442 4
1793 468 1
1793 496 1
1793 686 1
1793 793 1
1793 891 1
1793 1044 2
1793 1052 2
1794 45 1
1794 70 1
1794 78 1
1794 283 2
1794 306 1
1794 317 1
1794 364 1
1794 378 3
1794 671 2
1794 812 3
1795 15 1
1795 62 1
1795 64 1
1795 66 1
1795 70 1
1795 117 1
1795 125 2
1795 187 1
1795 216 1
1795 279 1
1795 303 2
1795 402 1
1795 410 1
1795 415 2
1795 417 1
1795 467 1
1795 471 1
1795 617 1
1795 846 1
1795 876 2
1795 933 1
1795 1006 2
1795 1051 1
1795 1052 2
1795 1221 1
1795 1307 1
1796 1 1
1796 53 1
1796 87 1
1796 100 1
1796 191 1
1796 238 2
1796 248 1
1796 267 1
1796 285 1
1796 298 1
1796 325 1
1796 331 1
1796 377 1
1796 427 2
1796 442 1
1796 541 1
1796 564 1
1796 575 1
1796 734 2
1796 735 1
1796 932 1
1796 940 1
1796 985 1
1796 1001 1
1796 1135 1
1797 44 2
1797 46 3
1797 50 1
1797 86 1
1797 94 1
1797 100 1
1797 105 3
1797 119 1
1797 150 2
1797 162 1
1797 186 1
1797 191 1
1797 354 1
1797 381 2
1797 468 1
1797 510 1
1797 660 1
1797 833 1
1797 948 3
1797 953 2
1797 1004 1
1797 1132 1
1797 1281 1
1798 35 3
1798 90 4
1798 93 1
1798 98 6
1798 143 1
1798 154 3
1798 183 1
1798 260 2
1798 289 3
1798 305 2
1798 349 3
1798 432 1
1798 446 3
1798 514 1
1798 650 1
1798 661 1
1798 685 9
1798 688 1
1798 767 1
1798 768 5
1798 775 3
1798 864 1
1798 1283 1
1799 27 1
1799 39 1
1799 45 2
1799 70 5
1799 77 1
1799 78 1
1799 117 1
1799 139 4
1799 146 1
1799 153 1
1799 178 1
1799 186 2
1799 212 1
1799 266 1
1799 283 2
1799 336 1
1799 367 1
1799 371 1
1799 421 1
1799 434 1
1799 574 1
1799 665 1
1799 686 1
1799 703 1
1799 800 2
1799 863 1
1799 890 1
1799 912 8
1799 926 1
1799 963 1
1799 988 1
1799 1100 1
1799 1234 1
1800 39 1
1800 47 1
1800 91 1
1800 94 1
1800 139 2
1800 146 1
1800 192 1
1800 303 1
1800 311 1
1800 356 1
1800 364 2
1800 409 1
1800 443 3
1800 512 1
1800 686 1
1800 694 1
1800 800 1
1800 890 2
1800 926 1
1800 949 1
1800 963 1
1800 988 1
1800 1100 1
1801 75 1
1801 80 2
1801 92 1
1801 154 3
1801 192 1
1801 232 1
1801 285 1
1801 325 1
1801 426 1
1801 471 1
1801 908 1
1801 909 1
1801 1040 1
1801 1063 1
1802 10 1
1802 86 1
1802 110 1
1802 123 4
1802 251 1
1802 301 1
1802 378 9
1802 398 3
1802 508 2
1802 760 1
1802 774 1
1802 843 2
1802 1020 1
1803 9 1
1803 11 5
1803 27 2
1803 35 1
1803 41 1
1803 52 1
1803 72 1
1803 73 1
1803 74 1
1803 164 1
1803 185 1
1803 216 2
1803 229 1
1803 286 1
1803 298 1
1803 382 2
1803 606 1
1803 654 1
1803 660 1
1803 670 1
1803 773 1
1803 988 1
1803 1000 1
1803 1072 1
1803 1099 1
1803 1288 1
1803 1340 3
1804 21 3
1804 46 3
1804 56 1
1804 57 2
1804 75 1
1804 122 1
1804 161 1
1804 167 7
1804 206 2
1804 215 2
1804 285 1
1804 293 1
1804 309 4
1804 310 1
1804 334 2
1804 336 1
1804 401 2
1804 471 1
1804 473 5
1804 522 2
1804 606 2
1804 707 1
1804 780 2
1804 846 1
1805 13 1
1805 21 1
1805 50 1
1805 64 1
1805 90 1
1805 158 1
1805 218 1
1805 232 1
1805 285 3
1805 392 3
1805 460 1
1805 477 1
1805 606 2
1805 607 1
1805 685 1
1805 953 2
1805 1007 1
1805 1036 1
1805 1068 4
1805 1076 2
1805 1119 1
1805 1147 2
1805 1232 2
1805 1268 1
1805 1272 3
1805 1273 1
1805 1274 1
1805 1294 1
1805 1301 1
1805 1322 1
1806 21 2
1806 79 1
1806 87 1
1806 122 11
1806 153 3
1806 254 2
1806 298 1
1806 356 1
1806 442 1
1806 522 1
1806 566 1
1806 626 1
1806 638 1
1806 646 1
1806 660 1
1806 685 1
1806 857 2
1806 954 4
1806 1012 1
1806 1279 1
1807 5 2
1807 115 3
1807 150 1
1807 175 1
1807 285 1
1807 368 1
1807 382 1
1807 460 2
1807 476 1
1807 606 3
1807 645 2
1807 810 1
1807 819 1
1807 962 3
1807 1011 4
1807 1036 1
1807 1076 4
1807 1088 1
1807 1090 2
1807 1119 2
1807 1225 2
1807 1232 1
1807 1268 1
1807 1273 1
1807 1274 1
1807 1301 2
1807 1322 3
1808 16 1
1808 21 2
1808 25 5
1808 27 3
1808 35 1
1808 44 1
1808 88 2
1808 143 1
1808 254 2
1808 257 3
1808 449 1
1808 597 1
1808 694 1
1808 797 1
1808 1278 4
1808 1332 1
1809 1 2
1809 21 1
1809 35 1
1809 75 1
1809 126 1
1809 142 1
1809 149 1
1809 179 1
1809 215 1
1809 240 1
1809 285 1
1809 360 1
1809 378 2
1809 413 1
1809 512 1
1809 527 1
1809 589 1
1809 709 1
1809 840 1
1809 972 1
1809 1099 1
1809 1115 1
1809 1129 1
1809 1138 3
1810 1 3
1810 5 1
1810 157 2
1810 167 3
1810 185 1
1810 234 1
1810 260 1
1810 306 1
1810 336 2
1810 340 1
1810 381 1
1810 624 1
1810 658 1
1810 675 1
1810 774 1
1810 775 3
1810 915 1
1810 1006 7
1810 1017 1
1810 1088 1
1810 1163 1
1810 1221 1
1811 1 1
1811 44 1
1811 172 1
1811 183 1
1811 184 1
1811 246 1
1811 306 1
1811 311 2
1811 337 1
1811 363 1
1811 442 1
1811 498 1
1811 512 1
1811 516 1
1811 562 1
1811 570 1
1811 660 1
1811 685 14
1811 788 1
1811 824 1
1811 864 1
1811 875 1
1811 900 4
1811 1007 2
1811 1209 1
1811 1223 1
1811 1263 3
1812 170 1
1812 191 1
1812 198 2
1812 224 2
1812 244 1
1812 301 1
1812 412 1
1812 447 1
1812 462 1
1812 471 1
1812 472 1
1812 475 4
1812 611 1
1812 632 1
1812 642 2
1812 837 1
1812 876 1
1813 45 2
1813 79 1
1813 143 1
1813 153 2
1813 169 1
1813 191 1
1813 249 1
1813 254 1
1813 256 1
1813 326 1
1813 442 1
1813 468 1
1813 559 1
1813 645 2
1813 697 8
1813 924 1
1813 925 1
1813 1065 1
1814 1 1
1814 49 2
1814 79 1
1814 87 2
1814 150 1
1814 183 1
1814 187 1
1814 212 1
1814 214 1
1814 249 2
1814 304 2
1814 315 1
1814 389 1
1814 685 4
1814 832 1
1814 906 7
1814 945 4
1814 986 1
1814 1038 1
1814 1054 7
1814 1065 1
1814 1200 1
1814 1317 1
1814 1326 1
1814 1336 1
1815 6 1
1815 9 1
1815 35 1
1815 45 1
1815 175 1
1815 186 2
1815 214 4
1815 249 2
1815 254 1
1815 289 2
1815 303 1
1815 337 1
1815 379 1
1815 389 1
1815 476 2
1815 514 2
1815 516 1
1815 556 8
1815 600 1
1815 607 1
1815 649 1
1815 660 1
1815 685 2
1815 712 1
1815 868 1
1815 916 1
1815 936 1
1815 938 1
1815 953 1
1815 1007 1
1815 1036 2
1815 1068 1
1815 1072 1
1815 1076 1
1815 1100 1
1815 1128 1
1815 1242 1
1815 1289 2
1815 1301 1
1816 1 3
1816 14 1
1816 35 1
1816 60 2
1816 86 2
1816 143 1
1816 170 1
1816 183 1
1816 191 1
1816 226 2
1816 234 1
1816 241 1
1816 244 1
1816 284 2
1816 340 1
1816 359 1
1816 382 1
1816 446 1
1816 454 1
1816 456 1
1816 498 1
1816 589 4
1816 685 7
1816 686 1
1816 712 9
1816 717 1
1816 744 1
1816 806 1
1816 810 2
1816 824 1
1816 857 2
1816 876 2
1816 916 1
1816 940 1
1816 1049 2
1816 1101 1
1816 1138 1
1816 1148 2
1816 1318 6
1817 1 2
1817 5 2
1817 32 5
1817 240 1
1817 246 1
1817 252 1
1817 301 1
1817 306 1
1817 348 1
1817 442 1
1817 499 5
1817 646 1
1817 862 1
1817 888 1
1817 891 1
1817 916 1
1817 1124 1
1817 1337 1
1818 59 1
1818 143 1
1818 186 1
1818 283 3
1818 286 3
1818 308 1
1818 458 6
1818 533 1
1818 589 1
1818 620 2
1818 827 1
1818 830 1
1818 842 1
1818 843 1
1818 866 1
1818 943 2
1818 1298 1
1819 1 1
1819 15 1
1819 16 1
1819 17 1
1819 25 3
1819 35 1
1819 88 2
1819 115 1
1819 187 1
1819 252 1
1819 254 1
1819 257 2
1819 396 1
1819 442 1
1819 682 2
1819 789 1
1819 855 1
1819 856 1
1819 864 1
1819 962 1
1819 1106 2
1819 1107 1
1819 1254 1
1819 1310 1
1820 1 5
1820 7 1
1820 21 5
1820 25 3
1820 39 2
1820 77 1
1820 143 1
1820 167 1
1820 178 1
1820 206 1
1820 252 1
1820 284 1
1820 306 2
1820 351 1
1820 359 1
1820 360 1
1820 372 1
1820 404 2
1820 405 1
1820 407 1
1820 416 1
1820 528 2
1820 540 1
1820 673 2
1820 709 1
1820 894 1
1820 1243 1
1821 9 1
1821 25 2
1821 65 1
1821 79 1
1821 91 1
1821 153 2
1821 186 1
1821 229 1
1821 254 1
1821 328 1
1821 390 3
1821 442 1
1821 463 1
1821 546 1
1821 789 1
1821 876 1
1821 896 1
1821 962 1
1821 1118 1
1821 1128 1
1821 1141 1
1821 1284 1
1822 79 1
1822 82 1
1822 136 1
1822 186 1
1822 224 1
1822 229 1
1822 277 2
1822 285 4
1822 330 1
1822 382 2
1822 392 2
1822 477 2
1822 532 1
1822 607 1
1822 725 2
1822 819 2
1822 908 1
1822 1012 2
1822 1225 12
1822 1232 2
1822 1268 2
1822 1273 2
1822 1274 1
1822 1322 1
1822 1338 1
1823 15 2
1823 21 1
1823 175 1
1823 203 1
1823 215 2
1823 246 1
1823 252 1
1823 254 4
1823 256 1
1823 274 1
1823 286 2
1823 298 2
1823 312 1
1823 319 1
1823 333 1
1823 404 1
1823 426 1
1823 494 1
1823 505 1
1823 515 1
1823 525 7
1823 655 1
1823 738 5
1823 743 1
1823 846 1
1823 888 1
1824 7 2
1824 27 1
1824 37 1
1824 91 1
1824 115 1
1824 117 1
1824 146 2
1824 214 2
1824 244 1
1824 274 1
1824 285 2
1824 323 2
1824 612 2
1824 647 1
1824 717 1
1824 768 1
1824 1251 1
1824 1264 2
1824 1287 1
1825 44 1
1825 45 1
1825 57 1
1825 75 2
1825 80 1
1825 139 1
1825 170 1
1825 180 1
1825 183 2
1825 216 4
1825 233 1
1825 254 6
1825 274 1
1825 305 1
1825 343 1
1825 388 1
1825 415 1
1825 515 2
1825 574 1
1825 635 2
1825 821 16
1825 865 5
1825 992 1
1825 1074 1
1826 13 1
1826 25 4
1826 143 1
1826 146 1
1826 260 2
1826 553 1
1826 645 1
1826 833 1
1826 1126 3
1826 1185 1
1826 1287 4
1827 1 2
1827 80 2
1827 82 1
1827 202 1
1827 243 1
1827 252 1
1827 277 1
1827 286 4
1827 355 1
1827 418 2
1827 422 1
1827 442 1
1827 527 3
1827 727 1
1827 793 2
1827 828 1
1827 933 1
1827 971 1
1827 1031 2
1827 1151 1
1828 1 1
1828 3 4
1828 10 2
1828 19 1
1828 21 3
1828 25 1
1828 26 1
1828 84 4
1828 86 1
1828 92 1
1828 94 2
1828 110 1
1828 150 1
1828 386 1
1828 432 1
1828 511 1
1828 773 1
1828 843 3
1828 1308 1
1828 1309 1
1829 1 1
1829 11 1
1829 45 1
1829 76 1
1829 80 1
1829 94 1
1829 100 1
1829 128 1
1829 153 1
1829 161 1
1829 186 1
1829 187 1
1829 203 1
1829 253 2
1829 254 4
1829 302 1
1829 331 1
1829 332 1
1829 336 1
1829 366 1
1829 382 1
1829 394 1
1829 404 1
1829 422 2
1829 466 1
1829 566 2
1829 579 2
1829 641 1
1829 664 1
1829 784 1
1829 804 1
1829 840 14
1829 929 2
1829 930 1
1829 971 1
1829 1109 1
1829 1112 2
1829 1131 1
1829 1145 1
1829 1341 4
1830 25 2
1830 75 1
1830 95 5
1830 170 2
1830 236 4
1830 264 1
1830 267 1
1830 330 1
1830 358 5
1830 388 1
1830 413 5
1830 426 1
1830 453 6
1830 556 1
1830 722 1
1830 782 2
1830 799 2
1830 1228 1
1831 114 1
1831 139 3
1831 170 2
1831 216 2
1831 269 1
1831 303 1
1831 305 1
1831 363 3
1831 407 3
1831 534 1
1831 584 1
1831 697 2
1831 954 1
1832 33 1
1832 92 1
1832 186 1
1832 252 1
1832 253 2
1832 279 1
1832 285 2
1832 289 1
1832 290 2
1832 379 1
1832 514 1
1832 522 1
1832 606 1
1832 626 1
1832 645 4
1832 793 2
1832 806 2
1832 877 6
1832 951 1
1832 1011 1
1832 1225 6
1832 1272 6
1833 11 1
1833 27 1
1833 45 1
1833 65 1
1833 80 1
1833 91 1
1833 106 1
1833 139 2
1833 153 2
1833 192 2
1833 254 1
1833 270 2
1833 336 1
1833 371 2
1833 512 2
1833 580 1
1833 686 2
1833 800 2
1833 880 1
1833 890 1
1833 949 1
1833 988 1
1833 1035 1
1834 1 4
1834 52 1
1834 72 1
1834 143 1
1834 175 1
1834 184 1
1834 283 2
1834 286 2
1834 343 1
1834 364 6
1834 378 1
1834 394 7
1834 432 1
1834 546 1
1834 581 1
1834 660 1
1834 673 1
1834 755 1
1834 870 1
1834 941 1
1835 1 1
1835 29 1
1835 50 5
1835 70 2
1835 82 1
1835 139 1
1835 143 1
1835 177 1
1835 192 1
1835 250 1
1835 389 1
1835 392 1
1835 415 1
1835 419 3
1835 457 1
1835 460 1
1835 558 1
1835 647 1
1835 660 1
1835 725 1
1835 882 1
1835 1068 2
1835 1119 1
1835 1325 1
1836 1 1
1836 100 1
1836 143 1
1836 283 2
1836 285 2
1836 302 1
1836 364 1
1836 417 1
1836 451 1
1836 460 1
1836 553 1
1836 800 1
1836 1164 2
1837 10 1
1837 29 2
1837 39 1
1837 40 1
1837 70 1
1837 72 3
1837 90 1
1837 151 1
1837 162 1
1837 311 1
1837 375 1
1837 383 1
1837 434 1
1837 473 3
1837 545 1
1837 585 1
1837 637 2
1837 776 1
1837 841 1
1837 862 1
1837 1146 1
1837 1209 1
1838 45 1
1838 93 2
1838 187 1
1838 202 1
1838 232 1
1838 281 1
1838 306 1
1838 332 2
1838 340 1
1838 382 1
1838 658 1
1838 1110 1
1839 5 1
1839 21 1
1839 29 6
1839 82 1
1839 87 2
1839 91 1
1839 257 1
1839 298 2
1839 375 1
1839 516 1
1839 518 1
1839 550 1
1839 748 3
1839 788 1
1839 1083 4
1839 1264 1
1839 1290 1
1840 15 3
1840 34 4
1840 86 1
1840 95 1
1840 119 1
1840 145 1
1840 178 1
1840 257 1
1840 267 1
1840 301 1
1840 302 1
1840 331 1
1840 442 1
1840 484 4
1840 498 1
1840 574 1
1840 581 1
1840 692 3
1840 724 1
1840 1097 1
1840 1177 3
1841 95 1
1841 99 1
1841 187 2
1841 210 2
1841 215 1
1841 232 2
1841 259 1
1841 278 1
1841 314 2
1841 318 1
1841 556 1
1841 559 1
1841 603 1
1841 1228 1
1842 67 1
1842 75 1
1842 80 1
1842 88 3
1842 153 1
1842 173 2
1842 174 1
1842 192 2
1842 283 1
1842 307 2
1842 366 2
1842 378 6
1842 437 1
1842 443 1
1842 512 1
1842 627 3
1842 667 1
1842 871 2
1842 941 2
1842 962 1
1842 1052 1
1843 80 1
1843 139 1
1843 163 1
1843 244 1
1843 259 2
1843 305 1
1843 311 1
1843 367 2
1843 404 1
1843 415 2
1843 574 2
1843 580 1
1843 596 1
1843 645 1
1843 680 1
1843 800 1
1843 935 1
1843 1144 1
1844 28 1
1844 32 1
1844 41 2
1844 56 2
1844 70 1
1844 95 1
1844 104 1
1844 126 1
1844 151 4
1844 153 1
1844 173 1
1844 179 1
1844 186 1
1844 189 1
1844 206 2
1844 232 1
1844 239 1
1844 252 1
1844 264 2
1844 274 1
1844 300 2
1844 306 2
1844 355 1
1844 394 1
1844 412 1
1844 510 1
1844 512 2
1844 638 1
1844 684 1
1844 706 2
1844 790 1
1844 804 1
1844 960 1
1844 981 1
1844 1092 1
1844 1142 1
1844 1169 1
1844 1210 1
1845 9 1
1845 70 1
1845 80 1
1845 243 1
1845 278 1
1845 421 1
1845 425 1
1845 440 1
1845 442 1
1845 458 1
1845 466 1
1845 1136 1
1845 1172 1
1846 11 1
1846 81 2
1846 88 2
1846 153 3
1846 158 4
1846 186 1
1846 225 1
1846 260 2
1846 264 1
1846 369 2
1846 379 1
1846 412 1
1846 497 1
1846 504 1
1846 511 1
1846 665 1
1846 686 1
1846 708 2
1846 745 1
1846 764 2
1846 792 1
1846 794 3
1846 796 1
1846 951 1
1847 12 1
1847 13 2
1847 27 1
1847 28 1
1847 44 1
1847 49 1
1847 55 1
1847 92 1
1847 134 1
1847 171 4
1847 183 1
1847 238 1
1847 286 2
1847 289 1
1847 350 1
1847 375 1
1847 514 2
1847 686 1
1847 954 1
1847 970 1
1847 988 2
1847 1265 1
1847 1322 1
1848 21 1
1848 45 1
1848 66 3
1848 117 1
1848 119 3
1848 232 1
1848 261 1
1848 267 1
1848 286 3
1848 398 2
1848 422 1
1848 432 1
1848 442 1
1848 488 1
1848 528 2
1848 530 1
1848 544 3
1848 583 1
1848 655 1
1848 660 1
1848 675 1
1848 705 1
1848 721 1
1848 727 2
1848 1264 6
1848 1338 1
1849 1 1
1849 3 1
1849 9 2
1849 45 1
1849 70 1
1849 75 4
1849 94 1
1849 124 2
1849 153 1
1849 161 1
1849 169 1
1849 187 2
1849 198 1
1849 205 1
1849 215 1
1849 293 1
1849 336 1
1849 419 1
1849 550 1
1849 1148 1
1849 1165 1
1849 1303 1
1850 1 1
1850 29 1
1850 32 1
1850 77 2
1850 104 2
1850 109 1
1850 139 3
1850 176 2
1850 182 2
1850 263 1
1850 270 1
1850 281 2
1850 285 1
1850 383 1
1850 415 1
1850 422 2
1850 426 1
1850 534 2
1850 580 1
1850 585 1
1850 684 1
1850 813 1
1851 59 1
1851 80 7
1851 283 3
1851 286 7
1851 387 1
1851 388 1
1851 442 1
1851 458 1
1851 527 1
1851 613 1
1851 843 1
1852 21 5
1852 41 1
1852 75 1
1852 95 2
1852 167 3
1852 246 3
1852 249 1
1852 285 1
1852 306 1
1852 331 2
1852 360 2
1852 393 1
1852 514 4
1852 606 1
1852 638 4
1852 658 1
1852 709 1
1852 734 1
1852 903 1
1852 1085 1
1852 1187 1
1852 1205 1
1853 81 1
1853 119 1
1853 167 1
1853 193 1
1853 224 1
1853 254 3
1853 273 1
1853 274 1
1853 284 1
1853 306 2
1853 331 3
1853 858 2
1853 883 1
1853 995 1
1853 1029 1
1853 1063 2
1854 1 1
1854 28 1
1854 35 1
1854 45 1
1854 65 1
1854 66 3
1854 104 1
1854 107 1
1854 109 1
1854 148 1
1854 153 1
1854 156 1
1854 172 1
1854 178 2
1854 180 1
1854 192 1
1854 216 2
1854 267 2
1854 286 1
1854 327 1
1854 378 1
1854 438 1
1854 442 1
1854 464 1
1854 530 3
1854 667 1
1854 720 1
1854 843 1
1854 866 1
1854 870 1
1854 1315 1
1855 5 1
1855 12 1
1855 21 2
1855 52 1
1855 114 1
1855 127 3
1855 172 2
1855 186 5
1855 232 1
1855 332 4
1855 347 5
1855 515 1
1855 584 6
1855 966 1
1855 1078 4
1856 1 1
1856 52 1
1856 85 7
1856 126 1
1856 143 1
1856 153 1
1856 186 1
1856 214 2
1856 254 1
1856 332 1
1856 359 1
1856 418 1
1856 471 1
1856 484 1
1856 498 1
1856 511 2
1856 512 1
1856 597 1
1856 612 1
1856 726 1
1856 791 1
1856 792 1
1856 793 1
1856 794 2
1856 795 1
1857 11 1
1857 35 1
1857 57 1
1857 80 1
1857 102 1
1857 143 2
1857 151 1
1857 153 1
1857 168 2
1857 170 1
1857 212 1
1857 231 2
1857 238 1
1857 268 1
1857 300 1
1857 316 3
1857 319 1
1857 326 2
1857 340 1
1857 418 1
1857 433 1
1857 435 2
1857 471 1
1857 595 2
1857 725 1
1857 726 1
1857 889 1
1857 960 1
1857 1120 1
1857 1288 1
1858 5 2
1858 15 1
1858 28 1
1858 116 1
1858 159 1
1858 172 3
1858 175 1
1858 195 1
1858 229 1
1858 336 1
1858 415 1
1858 422 1
1858 510 1
1858 515 1
1858 590 1
1858 821 1
1858 932 1
1858 1005 2
1859 1 1
1859 27 1
1859 84 1
1859 87 1
1859 139 1
1859 157 2
1859 167 1
1859 189 5
1859 256 1
1859 309 3
1859 576 3
1859 663 3
1860 77 1
1860 119 1
1860 157 2
1860 179 7
1860 267 1
1860 298 3
1860 320 1
1860 375 1
1860 382 1
1860 385 3
1860 442 1
1860 530 1
1860 658 1
1860 932 1
1860 1109 2
1860 1219 1
1861 9 2
1861 44 1
1861 52 1
1861 64 1
1861 77 1
1861 80 1
1861 81 1
1861 88 1
1861 92 1
1861 105 1
1861 117 1
1861 160 4
1861 161 1
1861 167 1
1861 187 1
1861 218 1
1861 252 1
1861 257 2
1861 258 2
1861 274 3
1861 331 1
1861 366 1
1861 382 1
1861 427 1
1861 429 3
1861 446 2
1861 455 8
1861 478 1
1861 484 2
1861 516 1
1861 556 2
1861 576 2
1861 614 1
1861 806 1
1861 852 2
1861 853 3
1861 917 1
1861 939 4
1861 984 1
1861 1029 5
1861 1059 1
1861 1091 1
1861 1247 1
1861 1262 1
1861 1330 1
1862 27 2
1862 65 4
1862 70 1
1862 75 1
1862 84 1
1862 86 1
1862 125 1
1862 146 1
1862 171 1
1862 183 1
1862 226 1
1862 310 2
1862 318 2
1862 379 2
1862 546 2
1862 548 1
1862 669 1
1862 887 1
1862 983 1
1862 1192 1
1863 47 1
1863 75 1
1863 101 1
1863 180 1
1863 183 1
1863 283 1
1863 304 1
1863 460 2
1863 506 1
1863 548 1
1863 603 1
1863 609 1
1863 619 1
1863 643 1
1863 645 1
1863 887 1
1864 1 2
1864 44 1
1864 45 1
1864 65 1
1864 87 2
1864 104 2
1864 117 3
1864 157 1
1864 167 3
1864 186 1
1864 229 1
1864 298 1
1864 310 1
1864 335 1
1864 337 1
1864 378 2
1864 402 1
1864 468 1
1864 496 1
1864 512 1
1864 679 1
1864 686 1
1864 1044 1
1864 1124 1
1864 1130 1
1864 1164 1
1865 15 4
1865 71 1
1865 80 1
1865 283 1
1865 291 1
1865 304 1
1865 375 1
1865 821 7
1866 19 1
1866 75 3
1866 86 2
1866 170 1
1866 213 1
1866 275 2
1866 530 1
1866 595 2
1866 617 1
1866 916 1
1866 944 3
1866 998 1
1867 82 1
1867 115 7
1867 143 2
1867 175 2
1867 184 2
1867 187 1
1867 257 1
1867 368 1
1867 422 1
1867 442 1
1867 516 1
1867 562 1
1867 673 1
1867 685 12
1867 862 2
1867 900 3
1867 1190 2
1867 1232 4
1867 1233 1
1867 1246 3
1867 1275 1
1868 21 1
1868 40 1
1868 80 1
1868 269 1
1868 285 3
1868 291 1
1868 300 1
1868 305 2
1868 363 1
1868 378 2
1868 413 1
1868 416 1
1868 571 2
1868 584 1
1868 667 1
1868 799 2
1869 80 9
1869 195 1
1869 256 1
1869 295 1
1869 313 4
1869 481 2
1869 560 1
1869 562 2
1869 564 1
1869 616 2
1869 797 1
1869 876 1
1870 25 1
1870 126 1
1870 143 2
1870 153 1
1870 206 2
1870 360 1
1870 364 2
1870 426 1
1870 531 1
1870 705 1
1870 1120 1
1871 149 1
1871 157 1
1871 167 3
1871 179 1
1871 253 1
1871 298 1
1871 303 1
1871 331 4
1871 377 1
1871 589 1
1871 840 1
1871 903 2
1872 15 1
1872 66 1
1872 70 1
1872 75 1
1872 92 1
1872 139 6
1872 250 1
1872 286 1
1872 306 1
1872 319 1
1872 352 1
1872 354 2
1872 363 1
1872 375 1
1872 404 1
1872 407 1
1872 452 1
1872 458 1
1872 468 2
1872 571 1
1872 572 3
1872 584 2
1872 589 1
1872 627 1
1872 633 1
1872 673 1
1872 741 1
1872 772 1
1872 1042 1
1872 1183 2
1872 1217 1
1872 1218 5
1872 1271 1
1872 1299 5
1872 1327 1
1872 1329 1
1872 1331 1
1872 1341 2
1872 1342 1
1873 21 2
1873 31 1
1873 51 2
1873 77 2
1873 102 1
1873 157 1
1873 170 3
1873 185 1
1873 218 1
1873 232 1
1873 257 1
1873 298 1
1873 375 1
1873 378 3
1873 412 4
1873 419 1
1873 489 3
1873 519 1
1873 672 3
1873 795 2
1873 876 1
1874 9 2
1874 41 1
1874 45 1
1874 82 1
1874 90 2
1874 116 1
1874 119 3
1874 188 1
1874 238 1
1874 258 1
1874 259 1
1874 266 1
1874 267 5
1874 325 1
1874 428 1
1874 429 1
1874 583 1
1874 625 1
1874 685 2
1874 692 1
1874 716 1
1874 836 1
1874 974 1
1874 1247 1
1874 1276 1
1875 21 3
1875 45 3
1875 75 3
1875 86 1
1875 113 1
1875 123 6
1875 152 1
1875 157 5
1875 167 2
1875 175 1
1875 186 1
1875 291 1
1875 298 1
1875 303 1
1875 405 2
1875 520 1
1875 558 1
1875 707 1
1875 812 2
1875 846 1
1875 873 1
1875 932 1
1875 980 1
1876 13 2
1876 50 2
1876 90 2
1876 186 2
1876 192 1
1876 198 3
1876 356 1
1876 412 3
1876 442 2
1876 685 3
1876 708 3
1876 813 1
1876 954 1
1876 1004 1
1876 1007 1
1876 1008 2
1876 1036 1
1876 1241 1
1876 1322 3
1876 1326 1
1876 1336 1
1877 75 6
1877 123 8
1877 192 9
1877 214 2
1877 285 1
1877 305 1
1877 311 3
1877 336 1
1877 426 1
1877 457 1
1877 540 1
1878 1 1
1878 21 1
1878 70 6
1878 80 7
1878 139 5
1878 153 2
1878 175 1
1878 186 2
1878 217 1
1878 288 1
1878 359 1
1878 1243 1
1879 45 1
1879 132 1
1879 153 4
1879 267 1
1879 281 2
1879 442 1
1879 456 1
1879 461 1
1879 705 1
1879 797 3
1879 891 1
1879 1054 3
1879 1337 1
1880 64 1
1880 71 2
1880 141 1
1880 170 2
1880 198 3
1880 234 6
1880 261 1
1880 267 1
1880 269 2
1880 364 2
1880 407 2
1880 412 1
1880 484 1
1880 572 2
1880 708 6
1880 711 4
1880 941 1
1880 1142 1
1880 1218 1
1880 1299 3
1880 1327 1
1880 1329 1
1880 1331 3
1881 25 1
1881 31 1
1881 32 1
1881 45 4
1881 75 2
1881 92 2
1881 95 3
1881 119 1
1881 142 1
1881 167 3
1881 190 1
1881 218 4
1881 246 2
1881 249 1
1881 285 2
1881 301 1
1881 309 2
1881 331 4
1881 363 1
1881 499 2
1881 644 1
1881 672 1
1881 721 1
1881 980 1
1881 1210 1
1881 1334 1
1882 25 1
1882 56 2
1882 102 2
1882 153 2
1882 167 1
1882 186 2
1882 267 1
1882 306 1
1882 358 3
1882 372 1
1882 426 1
1882 722 1
1883 1 1
1883 5 1
1883 143 1
1883 285 6
1883 458 1
1883 607 1
1883 649 1
1883 954 2
1883 1011 1
1883 1076 2
1883 1090 2
1883 1225 8
1883 1232 1
1883 1268 4
1883 1272 6
1883 1273 3
1883 1294 2
1883 1301 1
1884 19 1
1884 21 3
1884 64 1
1884 257 1
1884 301 1
1884 442 3
1884 473 1
1884 616 6
1884 686 1
1884 695 1
1884 711 1
1884 915 4
1884 1039 1
1884 1117 5
1885 1 2
1885 3 7
1885 5 1
1885 29 1
1885 42 1
1885 90 2
1885 158 1
1885 254 1
1885 257 1
1885 389 2
1885 422 1
1885 465 1
1885 475 1
1885 579 1
1885 630 1
1885 660 1
1885 685 4
1885 862 1
1885 878 1
1885 1062 1
1885 1101 1
1885 1111 1
1885 1240 2
1885 1300 1
1885 1313 1
1886 1 1
1886 72 1
1886 90 1
1886 183 1
1886 184 1
1886 191 2
1886 243 1
1886 257 2
1886 258 1
1886 298 3
1886 442 1
1886 498 2
1886 501 1
1886 512 1
1886 589 2
1886 625 1
1886 673 1
1886 712 3
1886 748 1
1886 814 1
1886 857 14
1886 864 1
1886 981 1
1886 1038 1
1886 1084 1
1886 1088 1
1886 1105 2
1886 1265 2
1886 1317 5
1887 1 1
1887 23 1
1887 29 1
1887 90 2
1887 160 1
1887 167 3
1887 191 1
1887 192 1
1887 215 1
1887 298 2
1887 354 1
1887 356 1
1887 364 1
1887 442 1
1887 512 2
1887 530 1
1887 570 1
1887 630 1
1887 685 10
1887 788 1
1887 822 1
1887 876 1
1887 900 2
1887 951 1
1887 967 1
1887 1190 1
1887 1246 1
1887 1298 1
1887 1322 1
1887 1333 2
1888 14 1
1888 27 1
1888 47 1
1888 50 1
1888 57 1
1888 75 1
1888 83 1
1888 95 1
1888 98 5
1888 99 1
1888 102 2
1888 116 1
1888 163 1
1888 193 2
1888 196 1
1888 249 1
1888 591 1
1888 633 1
1888 648 1
1888 875 1
1888 876 1
1888 1100 2
1888 1155 3
1889 9 1
1889 13 1
1889 25 8
1889 28 1
1889 29 1
1889 65 4
1889 66 1
1889 98 1
1889 101 2
1889 117 1
1889 128 1
1889 130 1
1889 144 1
1889 169 1
1889 178 1
1889 202 1
1889 254 1
1889 368 1
1889 428 1
1889 488 2
1889 581 1
1889 775 1
1889 812 1
1889 959 1
1889 1122 1
1889 1150 1
1889 1247 1
1889 1272 1
1890 151 1
1890 215 1
1890 226 1
1890 246 2
1890 331 1
1890 383 1
1890 442 1
1890 510 1
1890 530 1
1890 561 1
1890 633 1
1891 80 6
1891 143 2
1891 168 4
1891 171 14
1891 243 2
1891 283 2
1891 286 16
1891 323 2
1891 363 2
1891 364 10
1891 392 2
1891 421 2
1891 475 4
1891 517 2
1891 802 2
1891 821 4
1891 848 2
1891 863 2
1891 1170 4
1892 19 1
1892 27 4
1892 75 1
1892 81 1
1892 109 1
1892 153 1
1892 215 4
1892 252 1
1892 266 1
1892 335 1
1892 415 1
1892 466 1
1892 564 1
1892 711 1
1892 799 2
1893 48 7
1893 170 1
1893 215 1
1893 217 1
1893 264 4
1893 283 3
1893 359 2
1893 514 1
1893 645 1
1893 724 1
1893 1006 5
1893 1068 2
1893 1100 1
1894 27 2
1894 39 2
1894 45 6
1894 138 2
1894 158 2
1894 186 4
1894 256 4
1894 310 2
1894 334 4
1894 418 2
1894 512 2
1894 618 2
1894 634 2
1894 686 12
1894 694 4
1894 896 2
1894 920 2
1894 926 12
1894 935 2
1894 956 2
1894 963 2
1894 1090 2
1895 10 1
1895 21 1
1895 73 1
1895 81 1
1895 92 1
1895 102 7
1895 205 2
1895 215 2
1895 257 1
1895 291 1
1895 378 16
1895 419 2
1895 458 2
1895 574 1
1895 619 1
1895 621 5
1895 705 1
1895 1168 3
1896 94 1
1896 122 4
1896 144 1
1896 150 4
1896 191 1
1896 379 4
1896 392 1
1896 442 1
1896 468 1
1896 471 1
1896 667 1
1896 858 4
1896 1242 1
1897 1 1
1897 12 1
1897 15 4
1897 182 3
1897 236 4
1897 300 5
1897 432 1
1897 452 1
1897 507 1
1897 540 1
1897 649 1
1897 705 1
1897 784 1
1897 1122 1
1897 1296 1
1898 64 1
1898 77 1
1898 158 2
1898 179 1
1898 183 1
1898 187 1
1898 238 1
1898 258 1
1898 301 1
1898 302 1
1898 306 1
1898 342 1
1898 442 1
1898 515 2
1898 516 1
1898 528 1
1898 590 1
1898 640 2
1898 661 1
1898 711 1
1898 821 1
1898 865 5
1898 915 1
1898 1088 1
1898 1145 1
1899 15 1
1899 35 1
1899 40 1
1899 52 1
1899 73 1
1899 150 1
1899 216 1
1899 251 1
1899 417 1
1899 591 1
1899 600 1
1899 647 1
1899 678 1
1899 850 1
1899 864 1
1899 906 2
1899 908 3
1899 1007 1
1899 1037 1
1899 1082 1
1899 1190 1
1899 1208 7
1899 1267 7
1899 1320 1
1899 1326 1
1899 1336 2
1900 25 1
1900 70 1
1900 108 1
1900 109 1
1900 110 1
1900 139 4
1900 153 1
1900 178 1
1900 216 1
1900 252 1
1900 277 5
1900 363 4
1900 404 1
1900 543 1
1900 545 1
1900 571 1
1900 572 1
1900 584 1
1900 671 2
1900 728 1
1900 1081 1
1900 1142 1
1900 1183 4
1900 1218 2
1900 1299 4
1900 1328 6
1900 1329 2
1900 1331 1
1900 1342 2
1901 3 1
1901 29 2
1901 31 1
1901 39 1
1901 45 1
1901 64 1
1901 66 1
1901 72 1
1901 168 1
1901 175 1
1901 218 1
1901 226 1
1901 252 1
1901 257 1
1901 281 1
1901 422 1
1901 442 1
1901 443 1
1901 560 1
1901 582 1
1901 694 1
1901 729 2
1901 804 1
1901 875 1
1901 894 1
1901 1007 1
1901 1016 1
1901 1084 1
1901 1195 1
1901 1236 1
1901 1242 1
1901 1264 5
1901 1333 1
1902 10 1
1902 35 2
1902 91 3
1902 117 2
1902 153 1
1902 155 5
1902 168 1
1902 172 1
1902 212 1
1902 260 2
1902 277 1
1902 369 1
1902 446 1
1902 650 3
1902 1126 1
1902 1228 1
1903 50 1
1903 61 1
1903 64 1
1903 81 1
1903 183 1
1903 185 1
1903 187 6
1903 215 3
1903 218 1
1903 266 1
1903 275 2
1903 285 1
1903 371 2
1903 442 1
1903 471 2
1903 473 3
1903 474 2
1903 489 1
1903 552 3
1903 567 1
1903 736 1
1903 875 1
1903 1158 1
1903 1210 1
1904 10 2
1904 25 2
1904 78 2
1904 139 2
1904 153 1
1904 167 4
1904 192 4
1904 215 2
1904 218 2
1904 229 2
1904 303 2
1904 304 2
1904 306 2
1904 373 2
1904 376 2
1904 395 2
1904 481 2
1904 498 2
1904 512 2
1904 528 2
1904 545 2
1904 694 2
1904 699 2
1904 711 8
1904 1199 2
1904 1319 2
1905 29 2
1905 41 1
1905 49 1
1905 72 1
1905 90 1
1905 143 2
1905 168 1
1905 229 1
1905 252 1
1905 277 1
1905 286 3
1905 364 1
1905 418 1
1905 442 1
1905 530 1
1905 546 1
1905 630 1
1905 646 1
1905 655 1
1905 660 2
1905 685 5
1905 780 1
1905 900 1
1905 1264 3
1905 1283 1
1905 1295 1
1905 1322 1
1906 75 1
1906 117 1
1906 153 1
1906 168 1
1906 190 1
1906 224 1
1906 244 1
1906 249 1
1906 257 1
1906 285 3
1906 327 1
1906 376 1
1906 379 4
1906 434 1
1906 460 1
1906 482 1
1906 553 3
1906 556 2
1906 576 1
1906 606 1
1906 613 1
1906 655 1
1906 660 1
1906 661 1
1906 744 1
1906 876 1
1906 878 2
1906 880 1
1906 995 1
1907 5 1
1907 76 2
1907 82 2
1907 136 3
1907 220 1
1907 257 1
1907 285 6
1907 289 1
1907 292 2
1907 419 4
1907 460 1
1907 512 2
1907 819 1
1907 1011 3
1907 1068 2
1907 1090 1
1907 1121 1
1907 1225 8
1907 1272 3
1907 1325 4
1907 1338 1
1908 25 1
1908 86 2
1908 100 1
1908 124 1
1908 150 5
1908 153 2
1908 191 1
1908 326 1
1908 359 1
1908 446 2
1908 476 1
1908 562 1
1908 645 1
1908 647 3
1908 660 2
1908 763 2
1908 833 3
1908 944 1
1908 948 3
1908 1125 2
1908 1234 1
1908 1281 1
1909 1 4
1909 9 3
1909 27 1
1909 76 2
1909 81 2
1909 85 1
1909 117 1
1909 146 2
1909 158 1
1909 169 1
1909 254 1
1909 259 1
1909 260 1
1909 280 11
1909 327 1
1909 370 1
1909 390 2
1909 428 1
1909 429 1
1909 443 1
1909 528 3
1909 652 1
1909 791 1
1909 956 1
1909 1142 1
1909 1145 1
1909 1167 1
1909 1215 1
1910 35 1
1910 147 3
1910 153 1
1910 183 1
1910 221 1
1910 226 2
1910 252 1
1910 254 3
1910 326 1
1910 453 2
1910 537 1
1910 765 1
1910 844 1
1910 991 1
1910 1031 1
1910 1201 3
1910 1208 2
1910 1264 1
1910 1315 1
1911 32 1
1911 80 4
1911 92 1
1911 153 3
1911 172 1
1911 229 1
1911 252 1
1911 275 1
1911 277 1
1911 279 1
1911 285 4
1911 286 1
1911 298 1
1911 323 5
1911 331 1
1911 338 1
1911 340 1
1911 364 1
1911 492 1
1911 543 1
1911 705 1
1911 821 4
1911 853 1
1911 865 4
1911 889 1
1911 914 1
1911 951 1
1911 1078 2
1912 21 1
1912 41 2
1912 45 1
1912 75 1
1912 98 1
1912 149 3
1912 157 3
1912 167 2
1912 254 1
1912 274 1
1912 277 1
1912 298 3
1912 306 1
1912 331 3
1912 345 1
1912 402 1
1912 845 1
1912 858 1
1912 1324 3
1913 1 1
1913 15 2
1913 21 6
1913 45 1
1913 75 6
1913 139 1
1913 143 1
1913 153 2
1913 178 1
1913 208 1
1913 254 1
1913 309 2
1913 331 1
1913 388 2
1913 458 3
1913 511 1
1913 554 3
1913 556 1
1913 701 1
1913 707 1
1913 800 1
1913 839 1
1913 969 1
1913 980 2
1914 21 2
1914 52 1
1914 75 4
1914 86 2
1914 102 3
1914 153 4
1914 167 5
1914 202 1
1914 254 1
1914 267 3
1914 306 2
1914 358 3
1914 359 1
1914 412 1
1914 520 1
1914 543 1
1914 589 5
1914 653 1
1914 894 1
1914 1217 1
1915 41 3
1915 75 2
1915 80 1
1915 100 1
1915 107 1
1915 114 1
1915 153 1
1915 172 1
1915 173 1
1915 178 1
1915 302 2
1915 331 2
1915 342 1
1915 359 1
1915 393 1
1915 442 2
1915 530 2
1915 644 1
1915 670 1
1915 883 2
1915 1233 1
1916 75 5
1916 80 1
1916 171 5
1916 203 1
1916 209 2
1916 210 3
1916 238 1
1916 331 2
1916 393 1
1916 426 1
1916 461 2
1916 755 1
1916 983 1
1916 1122 1
1916 1181 1
1916 1217 1
1916 1226 1
1916 1311 1
1917 75 7
1917 90 4
1917 149 1
1917 157 1
1917 160 1
1917 167 11
1917 256 1
1917 281 1
1917 331 2
1917 384 5
1917 393 1
1917 415 1
1917 515 1
1917 575 1
1917 1039 2
1917 1324 1
1918 173 1
1918 285 6
1918 319 1
1918 340 3
1918 354 1
1918 375 1
1918 415 3
1918 540 1
1918 564 1
1918 800 2
1919 14 1
1919 50 2
1919 56 2
1919 75 6
1919 195 1
1919 298 1
1919 442 4
1919 558 1
1919 613 1
1919 660 1
1919 672 1
1919 1214 2
1920 3 1
1920 13 1
1920 25 1
1920 86 1
1920 102 2
1920 153 1
1920 195 1
1920 257 1
1920 302 1
1920 306 2
1920 413 5
1920 499 1
1920 530 1
1920 531 1
1920 971 1
1921 21 2
1921 25 4
1921 45 3
1921 75 3
1921 149 1
1921 157 1
1921 160 1
1921 167 4
1921 179 1
1921 281 1
1921 298 1
1921 331 1
1921 355 1
1921 375 1
1921 442 1
1921 800 3
1921 980 1
1921 1062 1
1922 95 1
1922 133 1
1922 141 1
1922 161 1
1922 169 1
1922 175 9
1922 189 1
1922 212 2
1922 241 1
1922 257 1
1922 267 2
1922 274 1
1922 303 1
1922 342 1
1922 347 1
1922 412 2
1922 447 1
1922 471 1
1922 498 2
1922 566 1
1922 594 1
1922 677 1
1922 744 1
1922 745 2
1922 836 3
1922 983 1
1922 1065 1
1922 1229 2
1922 1276 1
1923 10 3
1923 75 1
1923 86 1
1923 126 1
1923 153 3
1923 169 1
1923 178 1
1923 180 1
1923 212 4
1923 274 1
1923 302 1
1923 314 2
1923 417 1
1923 484 1
1923 487 2
1923 509 2
1923 660 1
1923 690 1
1923 699 2
1923 747 2
1923 809 1
1923 820 2
1923 889 1
1923 944 2
1924 38 2
1924 39 2
1924 53 2
1924 80 2
1924 175 2
1924 184 2
1924 186 2
1924 199 2
1924 216 2
1924 229 2
1924 231 6
1924 269 4
1924 285 2
1924 303 2
1924 311 2
1924 334 14
1924 336 2
1924 356 2
1924 382 2
1924 418 2
1924 471 2
1924 586 2
1924 686 2
1924 797 2
1924 804 2
1924 920 4
1924 947 2
1925 11 1
1925 81 3
1925 85 3
1925 98 1
1925 143 1
1925 151 1
1925 212 2
1925 257 1
1925 260 1
1925 286 4
1925 323 1
1925 359 1
1925 410 1
1925 418 1
1925 511 1
1925 575 1
1925 612 4
1925 792 2
1925 987 1
1925 1053 2
1925 1213 1
1925 1237 1
1925 1249 2
1925 1255 1
1925 1277 2
1925 1281 1
1926 16 1
1926 35 1
1926 75 3
1926 84 1
1926 88 6
1926 153 1
1926 172 1
1926 229 1
1926 252 1
1926 331 1
1926 530 1
1926 602 1
1926 974 2
1926 1181 1
1927 1 2
1927 34 3
1927 60 1
1927 80 1
1927 161 1
1927 164 1
1927 241 1
1927 257 3
1927 277 1
1927 309 2
1927 350 1
1927 390 1
1927 391 2
1927 471 1
1927 548 1
1927 626 1
1927 644 1
1927 771 1
1927 814 1
1927 820 1
1927 836 1
1927 1177 1
1927 1180 1
1927 1243 1
1927 1271 1
1928 76 1
1928 168 1
1928 171 4
1928 210 4
1928 212 1
1928 300 2
1928 372 1
1928 413 4
1928 840 7
1929 5 2
1929 21 3
1929 48 1
1929 77 1
1929 80 6
1929 82 1
1929 111 1
1929 131 1
1929 139 3
1929 229 1
1929 238 8
1929 269 8
1929 300 1
1929 301 2
1929 515 1
1929 584 3
1929 865 7
1929 992 1
1929 1122 1
1930 6 1
1930 75 1
1930 79 1
1930 84 5
1930 87 1
1930 150 1
1930 170 1
1930 178 3
1930 187 1
1930 279 1
1930 286 1
1930 288 2
1930 305 2
1930 319 1
1930 379 3
1930 412 1
1930 433 1
1930 443 1
1930 512 1
1930 523 1
1930 553 3
1930 556 1
1930 660 1
1930 814 1
1930 837 1
1930 949 1
1930 1339 1
1931 44 1
1931 100 1
1931 170 2
1931 186 1
1931 238 1
1931 307 1
1931 343 7
1931 349 1
1931 394 4
1931 499 1
1931 503 3
1931 527 1
1931 849 1
1931 871 1
1931 1321 1
1932 27 1
1932 80 1
1932 126 1
1932 186 1
1932 216 1
1932 268 1
1932 285 1
1932 310 1
1932 319 3
1932 323 2
1932 357 1
1932 381 1
1932 433 1
1932 435 1
1932 468 1
1932 527 1
1932 594 3
1932 606 1
1932 660 1
1932 725 1
1932 726 1
1932 952 1
1932 960 1
1932 988 2
1932 1065 1
1932 1072 1
1932 1165 1
1932 1250 1
1933 50 1
1933 100 1
1933 136 1
1933 208 1
1933 257 1
1933 279 1
1933 285 2
1933 419 1
1933 483 1
1933 599 2
1933 680 1
1933 954 4
1933 1068 2
1933 1225 3
1933 1268 1
1933 1273 1
1934 65 1
1934 77 1
1934 158 2
1934 329 1
1934 336 2
1934 375 1
1934 562 1
1934 661 1
1934 713 1
1934 739 1
1934 798 1
1934 889 2
1934 945 1
1934 993 1
1935 10 2
1935 26 1
1935 70 4
1935 177 2
1935 218 1
1935 264 2
1935 358 1
1936 87 1
1936 91 3
1936 98 3
1936 117 2
1936 283 1
1936 334 1
1936 383 3
1936 503 3
1936 515 1
1936 768 4
1936 774 1
1936 775 1
1937 5 1
1937 29 1
1937 41 1
1937 42 1
1937 80 2
1937 147 1
1937 157 1
1937 160 3
1937 183 1
1937 212 3
1937 245 1
1937 363 2
1937 383 1
1937 389 1
1937 411 1
1937 422 1
1937 469 1
1937 581 1
1937 597 1
1937 617 1
1937 685 1
1937 945 1
1937 1111 8
1938 24 2
1938 35 1
1938 50 1
1938 56 1
1938 81 1
1938 115 1
1938 134 1
1938 147 2
1938 150 3
1938 191 1
1938 212 1
1938 229 1
1938 254 1
1938 288 1
1938 293 2
1938 315 2
1938 335 1
1938 364 2
1938 389 1
1938 392 1
1938 446 1
1938 660 2
1938 685 1
1938 718 1
1938 858 1
1938 954 3
1938 991 2
1939 45 1
1939 70 1
1939 75 1
1939 77 1
1939 86 1
1939 87 1
1939 107 1
1939 110 1
1939 117 1
1939 123 7
1939 139 1
1939 143 1
1939 151 5
1939 166 1
1939 199 1
1939 202 1
1939 204 1
1939 215 1
1939 216 3
1939 229 1
1939 252 1
1939 311 3
1939 315 1
1939 319 1
1939 323 1
1939 345 1
1939 359 1
1939 382 1
1939 405 1
1939 413 2
1939 418 5
1939 442 2
1939 555 1
1939 576 4
1939 636 2
1939 652 1
1939 711 1
1939 713 1
1939 907 2
1939 954 2
1939 1087 2
1939 1109 1
1939 1290 1
1939 1330 1
1939 1337 1
1940 5 2
1940 13 3
1940 50 2
1940 214 1
1940 217 1
1940 231 1
1940 257 1
1940 310 2
1940 312 1
1940 368 1
1940 372 1
1940 393 1
1940 462 1
1940 471 1
1940 481 1
1940 642 1
1940 685 1
1940 924 4
1940 958 1
1940 1004 2
1940 1316 1
1940 1338 2
1941 80 6
1941 179 1
1941 395 1
1941 458 1
1941 462 1
1941 475 1
1941 870 1
1941 891 1
1942 29 1
1942 31 1
1942 45 1
1942 52 4
1942 72 2
1942 90 1
1942 108 1
1942 178 1
1942 182 1
1942 238 1
1942 289 1
1942 315 1
1942 327 1
1942 348 1
1942 350 1
1942 359 1
1942 422 2
1942 443 1
1942 579 1
1942 589 2
1942 657 1
1942 660 1
1942 749 1
1942 751 1
1942 756 1
1942 773 1
1942 823 1
1942 847 1
1942 900 1
1942 903 2
1942 916 1
1942 928 1
1942 932 1
1942 977 1
1942 1061 1
1942 1084 1
1942 1101 2
1942 1203 1
1942 1233 1
1942 1240 1
1942 1304 1
1942 1340 1
1943 99 5
1943 100 1
1943 292 2
1943 372 1
1943 458 4
1943 574 1
1943 613 2
1943 645 2
1943 833 3
1943 1037 4
1943 1225 11
1944 10 1
1944 11 1
1944 13 4
1944 21 1
1944 149 3
1944 167 2
1944 192 1
1944 262 1
1944 294 1
1944 298 2
1944 378 5
1944 415 1
1944 471 1
1944 518 1
1944 524 2
1944 530 1
1944 568 1
1944 589 1
1944 647 1
1944 748 1
1944 871 1
1944 998 1
1944 1084 1
1944 1324 1
1945 11 2
1945 21 1
1945 25 1
1945 29 2
1945 52 2
1945 70 1
1945 84 3
1945 100 1
1945 114 1
1945 229 1
1945 233 1
1945 244 1
1945 307 1
1945 338 1
1945 354 1
1945 426 1
1945 512 1
1945 730 1
1945 758 1
1946 9 1
1946 11 1
1946 35 1
1946 45 1
1946 52 1
1946 72 1
1946 73 1
1946 91 1
1946 95 1
1946 153 1
1946 184 1
1946 186 1
1946 208 1
1946 229 1
1946 251 2
1946 298 1
1946 345 1
1946 382 2
1946 395 1
1946 498 3
1946 594 4
1946 652 6
1946 654 1
1946 663 1
1946 688 1
1946 756 1
1946 918 3
1946 994 1
1946 996 1
1946 1000 3
1946 1055 1
1946 1286 1
1946 1298 1
1946 1323 2
1946 1340 1
1947 5 2
1947 6 1
1947 35 7
1947 73 1
1947 104 1
1947 153 1
1947 183 1
1947 212 3
1947 226 1
1947 319 1
1947 537 1
1947 685 13
1947 726 1
1947 806 1
1947 819 1
1947 900 1
1947 945 1
1947 1068 1
1947 1270 1
1947 1276 2
1947 1317 1
1947 1322 5
1947 1335 1
1948 5 1
1948 35 1
1948 45 1
1948 109 1
1948 168 1
1948 171 1
1948 192 1
1948 236 1
1948 238 1
1948 275 1
1948 286 1
1948 363 1
1948 371 1
1948 396 1
1948 397 1
1948 422 1
1948 454 1
1948 481 1
1948 515 1
1948 517 1
1948 692 1
1948 769 1
1948 821 1
1948 983 1
1948 1052 1
1948 1190 1
1949 2 2
1949 21 3
1949 79 1
1949 87 1
1949 90 2
1949 115 3
1949 122 1
1949 143 1
1949 150 4
1949 172 1
1949 183 1
1949 251 2
1949 306 4
1949 356 1
1949 379 2
1949 442 1
1949 476 4
1949 509 1
1949 685 11
1949 705 1
1949 810 1
1949 1007 2
1949 1148 1
1949 1326 1
1949 1336 2
1950 45 1
1950 79 1
1950 88 3
1950 108 1
1950 139 3
1950 146 1
1950 151 1
1950 186 1
1950 189 1
1950 192 1
1950 229 1
1950 244 1
1950 303 1
1950 332 1
1950 338 1
1950 372 1
1950 376 1
1950 409 1
1950 443 5
1950 564 2
1950 618 1
1950 686 2
1950 806 1
1950 837 1
1950 890 2
1950 926 3
1950 935 1
1950 982 1
1950 988 2
1950 1090 1
1950 1100 1
1950 1116 1
1951 9 2
1951 25 1
1951 35 1
1951 53 1
1951 70 1
1951 85 4
1951 91 1
1951 119 3
1951 150 1
1951 153 7
1951 169 1
1951 171 1
1951 208 1
1951 243 1
1951 260 1
1951 274 1
1951 294 1
1951 345 3
1951 528 1
1951 544 1
1951 574 1
1951 650 4
1951 665 1
1951 743 3
1951 844 1
1951 923 1
1951 1339 1
1952 1 5
1952 3 1
1952 4 1
1952 7 2
1952 13 2
1952 19 1
1952 20 1
1952 25 4
1952 27 2
1952 32 1
1952 39 5
1952 84 3
1952 85 1
1952 211 3
1952 408 1
1952 448 1
1952 506 1
1952 528 1
1952 548 1
1952 556 1
1952 570 1
1952 816 1
1952 1158 1
1952 1173 1
1952 1185 2
1952 1186 2
1953 10 1
1953 56 1
1953 61 1
1953 70 5
1953 81 1
1953 86 1
1953 102 1
1953 110 2
1953 153 1
1953 170 2
1953 175 1
1953 187 1
1953 231 2
1953 252 2
1953 254 8
1953 264 1
1953 276 1
1953 298 1
1953 319 1
1953 332 1
1953 366 2
1953 381 1
1953 385 1
1953 415 2
1953 435 1
1953 456 1
1953 504 2
1953 590 1
1953 636 1
1953 767 1
1953 844 2
1953 890 1
1953 971 1
1953 995 2
1953 1100 2
1953 1165 1
1953 1172 1
1954 5 1
1954 29 1
1954 44 1
1954 49 4
1954 90 2
1954 134 2
1954 143 1
1954 214 1
1954 218 2
1954 375 1
1954 434 1
1954 442 1
1954 445 1
1954 471 1
1954 475 1
1954 489 1
1954 570 1
1954 660 1
1954 669 1
1954 685 11
1954 848 1
1954 875 1
1954 900 1
1954 1096 3
1954 1314 1
1955 23 2
1955 29 1
1955 40 1
1955 70 1
1955 90 1
1955 143 8
1955 150 1
1955 153 1
1955 177 1
1955 179 1
1955 214 1
1955 229 1
1955 289 1
1955 305 1
1955 364 1
1955 372 1
1955 379 1
1955 388 1
1955 395 1
1955 497 1
1955 514 1
1955 531 1
1955 576 2
1955 660 3
1955 685 1
1955 694 1
1955 944 2
1955 1072 3
1955 1242 8
1955 1313 4
1955 1339 1
1956 11 1
1956 38 1
1956 45 1
1956 54 2
1956 91 1
1956 100 2
1956 104 1
1956 112 1
1956 139 2
1956 172 2
1956 182 1
1956 229 2
1956 257 1
1956 269 3
1956 285 2
1956 311 3
1956 313 3
1956 374 1
1956 414 2
1956 512 1
1956 535 2
1956 536 2
1956 565 2
1956 571 1
1956 580 3
1956 1035 1
1956 1096 1
1957 70 4
1957 93 1
1957 204 1
1957 243 1
1957 254 1
1957 274 1
1957 286 8
1957 364 1
1957 442 1
1957 465 2
1957 685 15
1957 777 1
1957 848 1
1957 900 1
1957 1028 1
1957 1240 1
1957 1246 2
1957 1275 1
1957 1295 1
1957 1322 1
1958 27 1
1958 183 1
1958 185 1
1958 205 1
1958 231 1
1958 279 1
1958 285 1
1958 335 1
1958 347 1
1958 383 1
1958 413 1
1958 419 1
1958 537 3
1958 560 1
1958 617 1
1958 631 1
1958 670 1
1958 672 7
1958 727 4
1958 754 2
1958 780 1
1958 809 1
1958 916 1
1958 931 1
1959 1 1
1959 5 1
1959 11 1
1959 25 3
1959 29 1
1959 40 1
1959 70 1
1959 71 5
1959 77 2
1959 118 1
1959 163 1
1959 178 1
1959 185 1
1959 186 1
1959 189 1
1959 238 1
1959 254 1
1959 266 1
1959 298 1
1959 315 1
1959 324 1
1959 331 1
1959 366 1
1959 382 1
1959 495 1
1959 512 1
1959 517 1
1959 651 2
1959 678 1
1959 686 1
1959 702 1
1959 1083 1
1959 1203 1
1960 80 2
1960 100 1
1960 109 1
1960 120 1
1960 124 1
1960 150 1
1960 286 1
1960 331 1
1960 404 1
1960 513 1
1960 514 1
1960 581 1
1960 733 1
1960 769 1
1960 824 1
1960 840 1
1960 877 1
1960 971 1
1961 21 1
1961 143 3
1961 153 2
1961 178 1
1961 303 1
1961 335 1
1961 413 1
1961 597 1
1961 682 1
1961 704 1
1962 232 2
1962 283 3
1962 311 1
1962 313 1
1962 505 1
1962 565 1
1962 908 1
1962 909 1
1962 1200 4
1963 35 2
1963 45 1
1963 64 1
1963 70 1
1963 87 2
1963 92 2
1963 98 1
1963 150 1
1963 175 1
1963 184 1
1963 187 1
1963 260 1
1963 334 1
1963 405 1
1963 410 2
1963 414 1
1963 446 3
1963 511 1
1963 514 1
1963 697 1
1963 705 2
1963 743 2
1963 1000 1
1963 1054 4
1963 1125 3
1963 1229 1
1963 1234 1
1963 1277 1
1963 1339 1
1964 1 3
1964 38 2
1964 39 3
1964 41 1
1964 45 1
1964 52 1
1964 62 1
1964 66 1
1964 75 1
1964 82 2
1964 159 3
1964 164 1
1964 170 1
1964 172 1
1964 190 1
1964 191 1
1964 215 1
1964 232 1
1964 236 3
1964 245 1
1964 252 1
1964 256 1
1964 269 1
1964 283 4
1964 303 1
1964 304 1
1964 312 1
1964 331 2
1964 343 1
1964 347 1
1964 372 1
1964 375 1
1964 546 1
1964 557 1
1964 591 1
1964 630 1
1964 641 1
1964 660 5
1964 693 1
1964 694 1
1964 701 1
1964 710 1
1964 772 3
1964 803 1
1964 966 1
1964 1330 1
1965 27 1
1965 47 1
1965 50 1
1965 73 1
1965 75 1
1965 98 4
1965 99 3
1965 175 1
1965 187 1
1965 196 1
1965 215 4
1965 218 3
1965 318 1
1965 444 1
1965 474 1
1965 545 1
1965 616 1
1965 633 2
1965 661 1
1965 770 1
1965 912 1
1965 922 1
1965 983 1
1965 1100 1
1965 1109 1
1965 1210 1
1966 44 1
1966 80 2
1966 85 1
1966 143 1
1966 150 1
1966 168 1
1966 215 1
1966 285 2
1966 446 1
1966 650 1
1966 733 1
1966 764 1
1966 792 1
1966 794 3
1966 930 1
1966 1339 1
1967 90 1
1967 107 1
1967 136 1
1967 250 1
1967 257 1
1967 419 1
1967 446 3
1967 516 1
1967 685 1
1967 1011 1
1967 1068 3
1967 1090 1
1967 1273 2
1967 1322 1
1967 1325 3
1967 1338 3
1968 82 2
1968 244 1
1968 259 2
1968 340 1
1968 514 1
1968 560 1
1968 612 1
1968 613 1
1968 701 1
1968 744 1
1968 802 1
1968 922 1
1968 1045 1
1969 1 2
1969 5 3
1969 32 1
1969 52 1
1969 72 1
1969 82 1
1969 84 1
1969 90 3
1969 115 1
1969 252 1
1969 286 1
1969 300 1
1969 326 1
1969 359 1
1969 375 1
1969 510 1
1969 589 1
1969 652 1
1969 688 1
1969 714 1
1969 784 1
1969 791 1
1969 1083 3
1969 1106 1
1969 1132 1
1969 1144 1
1969 1262 1
1969 1283 1
1969 1298 1
1969 1310 1
1970 3 4
1970 4 1
1970 5 1
1970 10 1
1970 45 1
1970 70 2
1970 76 1
1970 80 1
1970 86 1
1970 153 1
1970 183 1
1970 218 5
1970 229 1
1970 442 4
1970 506 4
1970 546 1
1970 662 1
1970 721 1
1970 788 1
1970 1109 1
1971 267 1
1971 315 1
1971 323 4
1971 355 2
1971 375 1
1971 376 4
1971 378 3
1971 612 3
1972 12 1
1972 92 1
1972 98 3
1972 155 4
1972 231 1
1972 260 1
1972 277 1
1972 289 1
1972 514 1
1972 592 1
1972 609 1
1972 645 1
1972 697 2
1972 743 1
1972 820 1
1972 830 1
1972 884 1
1972 911 1
1972 1011 2
1972 1090 1
1972 1121 1
1972 1125 5
1972 1234 1
1972 1251 1
1973 35 1
1973 52 1
1973 60 1
1973 65 1
1973 81 2
1973 83 2
1973 93 3
1973 109 1
1973 168 1
1973 170 1
1973 213 1
1973 273 2
1973 277 1
1973 296 1
1973 319 1
1973 338 1
1973 372 1
1973 525 2
1973 712 1
1973 825 2
1973 1190 9
1974 29 1
1974 35 1
1974 77 1
1974 81 1
1974 83 1
1974 93 1
1974 109 2
1974 168 1
1974 175 3
1974 192 1
1974 232 1
1974 238 1
1974 273 1
1974 285 2
1974 371 2
1974 397 1
1974 424 1
1974 425 2
1974 515 1
1974 517 1
1974 531 1
1974 543 1
1974 579 2
1974 619 1
1974 712 2
1974 804 2
1974 825 2
1974 843 1
1974 950 1
1974 1190 8
1975 1 1
1975 25 6
1975 35 2
1975 65 2
1975 178 1
1975 184 1
1975 187 1
1975 215 1
1975 370 1
1975 396 1
1975 413 2
1975 442 1
1975 647 1
1975 682 6
1975 764 1
1975 791 1
1975 876 1
1975 881 1
1976 56 2
1976 77 1
1976 104 1
1976 168 1
1976 169 1
1976 170 1
1976 171 3
1976 178 1
1976 182 1
1976 192 1
1976 208 2
1976 209 1
1976 210 2
1976 264 2
1976 281 1
1976 294 1
1976 305 1
1976 326 1
1976 335 1
1976 359 3
1976 403 2
1976 511 3
1976 559 1
1976 595 1
1976 798 1
1976 859 1
1976 875 1
1976 997 1
1977 1 2
1977 32 5
1977 35 1
1977 57 1
1977 66 1
1977 119 1
1977 336 2
1977 644 1
1977 699 1
1977 1187 2
1977 1323 1
1978 9 2
1978 52 1
1978 81 2
1978 82 1
1978 92 1
1978 117 2
1978 146 4
1978 153 1
1978 175 1
1978 183 1
1978 212 1
1978 215 1
1978 325 1
1978 331 1
1978 345 1
1978 382 1
1978 470 2
1978 494 1
1978 550 1
1978 705 1
1978 768 3
1978 774 1
1978 787 1
1978 1049 2
1978 1139 1
1978 1191 1
1978 1231 1
1978 1262 1
1979 1 1
1979 70 3
1979 73 1
1979 80 1
1979 90 5
1979 93 1
1979 170 4
1979 195 1
1979 257 1
1979 266 1
1979 284 1
1979 286 2
1979 306 3
1979 335 4
1979 442 1
1979 475 1
1979 521 1
1979 527 6
1979 685 3
1979 839 1
1979 877 3
1979 900 3
1979 975 3
1979 1111 1
1980 1 1
1980 16 1
1980 25 3
1980 35 1
1980 89 2
1980 98 1
1980 115 2
1980 150 2
1980 153 4
1980 257 1
1980 260 1
1980 304 1
1980 335 1
1980 379 2
1980 528 1
1980 606 1
1980 613 1
1980 666 1
1980 683 1
1980 729 2
1980 776 1
1980 957 3
1980 991 4
1980 1264 1
1981 6 1
1981 38 1
1981 76 1
1981 91 1
1981 104 2
1981 168 1
1981 177 1
1981 178 1
1981 192 1
1981 306 5
1981 359 3
1981 364 2
1981 367 1
1981 383 1
1981 414 1
1981 492 1
1981 516 1
1981 594 4
1981 685 5
1981 864 2
1981 1035 1
1981 1055 1
1981 1058 1
1981 1140 1
1981 1263 1
1981 1275 1
1982 21 1
1982 40 1
1982 95 1
1982 102 4
1982 170 1
1982 203 1
1982 266 1
1982 360 1
1982 372 1
1982 378 5
1982 439 1
1982 478 2
1982 566 1
1982 614 1
1982 647 1
1982 799 3
1983 8 1
1983 92 1
1983 170 5
1983 250 2
1983 256 1
1983 278 1
1983 303 1
1983 313 5
1983 319 1
1983 325 1
1983 374 2
1983 375 2
1983 376 2
1983 500 2
1983 564 1
1983 685 5
1983 734 1
1984 1 1
1984 3 1
1984 9 1
1984 29 1
1984 39 1
1984 70 1
1984 90 1
1984 151 1
1984 192 1
1984 193 1
1984 311 2
1984 345 1
1984 364 4
1984 388 2
1984 502 1
1984 581 1
1984 660 1
1984 685 1
1984 923 1
1984 1140 1
1985 5 3
1985 21 2
1985 46 1
1985 48 2
1985 77 1
1985 80 7
1985 82 1
1985 114 1
1985 139 4
1985 238 4
1985 269 6
1985 302 1
1985 359 1
1985 400 1
1985 539 1
1985 584 4
1985 788 1
1985 865 6
1985 1030 1
1986 7 1
1986 170 1
1986 442 1
1986 460 1
1986 556 4
1986 562 1
1986 672 2
1986 767 1
1986 1019 1
1986 1235 1
1987 1 3
1987 45 2
1987 75 1
1987 93 1
1987 105 2
1987 109 1
1987 117 4
1987 163 1
1987 169 1
1987 186 1
1987 229 1
1987 235 2
1987 274 1
1987 319 1
1987 512 2
1987 838 2
1987 1149 1
1988 7 4
1988 25 1
1988 79 2
1988 87 2
1988 143 2
1988 146 1
1988 153 2
1988 184 6
1988 279 1
1988 442 1
1988 686 1
1988 955 7
1989 15 1
1989 57 1
1989 75 1
1989 101 1
1989 103 2
1989 116 1
1989 149 2
1989 161 2
1989 168 2
1989 178 1
1989 232 1
1989 267 3
1989 275 5
1989 303 1
1989 304 1
1989 316 1
1989 321 1
1989 336 1
1989 388 1
1989 455 2
1989 612 1
1989 619 1
1989 676 1
1989 753 1
1989 947 1
1989 982 2
1989 1164 1
1989 1291 1
1990 8 1
1990 27 1
1990 41 2
1990 130 1
1990 132 1
1990 183 1
1990 186 1
1990 214 1
1990 278 3
1990 286 2
1990 289 1
1990 298 2
1990 460 7
1990 611 1
1990 661 1
1990 696 1
1990 718 1
1990 719 1
1990 724 2
1990 797 2
1990 814 1
1990 899 1
1990 1027 1
1990 1052 2
1991 17 4
1991 34 1
1991 63 1
1991 124 1
1991 183 1
1991 226 2
1991 398 3
1991 406 1
1991 544 1
1991 602 1
1991 712 2
1991 721 1
1991 750 1
1991 831 1
1991 853 1
1991 1013 1
1991 1025 1
1991 1052 1
1991 1096 1
1991 1101 1
1991 1106 1
1991 1130 1
1991 1192 1
1991 1203 1
1991 1230 1
1991 1313 4
1992 9 2
1992 81 6
1992 85 2
1992 90 1
1992 150 1
1992 153 3
1992 169 1
1992 191 1
1992 231 1
1992 260 1
1992 277 1
1992 282 1
1992 410 1
1992 517 2
1992 518 1
1992 650 1
1992 685 1
1992 718 1
1992 743 5
1992 789 2
1992 792 1
1992 844 1
1992 1087 1
1992 1188 1
1992 1243 1
1992 1339 1
1993 46 1
1993 60 2
1993 78 1
1993 102 1
1993 135 1
1993 142 1
1993 149 3
1993 156 1
1993 158 1
1993 182 1
1993 183 1
1993 202 1
1993 216 1
1993 267 1
1993 275 1
1993 444 2
1993 488 1
1993 507 1
1993 700 1
1993 719 2
1993 721 1
1993 824 1
1993 852 1
1993 1103 1
1993 1120 1
1994 1 1
1994 3 4
1994 5 1
1994 44 1
1994 75 1
1994 167 4
1994 285 1
1994 324 1
1994 331 1
1994 343 1
1994 388 1
1994 397 1
1994 398 3
1994 499 2
1994 558 1
1994 582 2
1994 694 1
1994 877 3
1994 910 1
1994 1057 1
1994 1102 1
1995 3 1
1995 27 1
1995 50 1
1995 62 2
1995 65 1
1995 75 8
1995 76 1
1995 79 1
1995 87 1
1995 100 1
1995 108 2
1995 175 1
1995 183 1
1995 188 6
1995 192 3
1995 203 1
1995 212 1
1995 229 1
1995 248 2
1995 256 3
1995 285 1
1995 331 1
1995 335 1
1995 379 1
1995 401 1
1995 457 1
1995 512 1
1995 606 1
1995 660 1
1995 843 1
1995 902 1
1995 1004 1
1995 1025 1
1995 1095 1
1995 1103 1
1995 1239 2
1996 25 2
1996 35 1
1996 85 1
1996 110 1
1996 158 1
1996 192 3
1996 279 1
1996 280 4
1996 418 1
1996 512 1
1996 528 2
1996 596 5
1996 660 1
1996 763 1
1996 794 4
1997 1 2
1997 29 1
1997 92 2
1997 105 1
1997 183 1
1997 226 1
1997 231 1
1997 234 1
1997 252 2
1997 338 1
1997 356 1
1997 442 1
1997 608 1
1997 666 1
1997 712 2
1997 806 1
1997 845 1
1997 906 1
1997 1007 1
1997 1045 1
1997 1086 2
1997 1262 2
1997 1326 1
1997 1336 1
1998 25 2
1998 35 1
1998 36 1
1998 44 1
1998 85 1
1998 89 2
1998 105 1
1998 153 1
1998 288 2
1998 299 2
1998 413 2
1998 443 1
1998 503 8
1998 511 1
1998 647 3
1998 669 1
1998 947 1
1998 1053 1
1998 1076 1
1998 1090 2
1999 45 1
1999 80 1
1999 127 4
1999 179 1
1999 215 1
1999 226 4
1999 229 1
1999 252 1
1999 254 2
1999 257 1
1999 278 1
1999 327 1
1999 334 3
1999 515 1
1999 525 5
1999 581 1
1999 675 1
1999 758 1
1999 808 1
1999 1013 4
1999 1078 1
1999 1235 1
2000 87 1
2000 117 1
2000 170 2
2000 183 1
2000 229 1
2000 234 1
2000 266 1
2000 499 1
2000 503 2
2000 559 1
2000 624 5
2000 675 1
2000 768 3
2000 774 1
2000 775 1
2000 1038 1
2000 1163 3
2000 1290 1
2000 1302 1
2001 70 3
2001 139 2
2001 146 1
2001 153 1
2001 313 1
2001 364 1
2001 381 1
2001 415 7
2001 549 3
2001 764 1
2001 800 3
2001 969 1
2001 1089 1
2001 1135 2
2001 1140 1
2002 21 2
2002 57 1
2002 122 2
2002 178 1
2002 250 1
2002 264 2
2002 321 1
2002 331 1
2002 390 1
2002 530 1
2002 641 1
2002 649 2
2002 680 1
2002 958 1
2003 80 1
2003 90 6
2003 184 1
2003 254 3
2003 259 1
2003 286 1
2003 289 2
2003 359 4
2003 582 1
2003 673 1
2003 684 1
2003 685 6
2003 712 1
2003 801 2
2003 802 1
2003 877 2
2003 900 1
2003 1038 1
2003 1096 2
2003 1111 18
2003 1114 1
2003 1154 1
2003 1240 3
2003 1275 1
2004 3 11
2004 11 9
2004 19 2
2004 20 1
2004 29 1
2004 73 1
2004 92 2
2004 122 4
2004 214 2
2004 229 1
2004 243 1
2004 257 1
2004 259 1
2004 319 1
2004 326 1
2004 338 3
2004 356 3
2004 501 6
2004 527 1
2004 579 1
2004 582 2
2004 672 1
2004 685 1
2004 705 2
2004 864 1
2004 918 1
2004 1084 4
2004 1111 3
2004 1188 1
2005 52 1
2005 76 1
2005 91 2
2005 98 1
2005 157 1
2005 187 1
2005 214 1
2005 234 1
2005 259 1
2005 280 11
2005 314 1
2005 331 1
2005 335 1
2005 346 1
2005 355 1
2005 384 5
2005 419 1
2005 434 1
2005 498 6
2006 44 1
2006 76 1
2006 192 4
2006 203 1
2006 254 1
2006 283 1
2006 468 1
2006 533 3
2006 734 1
2006 735 1
2006 812 1
2006 1089 3
2006 1140 3
2007 44 1
2007 76 1
2007 84 2
2007 144 1
2007 157 2
2007 160 3
2007 187 1
2007 192 2
2007 206 4
2007 234 1
2007 254 1
2007 280 6
2007 283 1
2007 372 1
2007 392 1
2007 419 3
2007 434 1
2007 468 1
2007 543 1
2007 744 4
2007 841 1
2007 843 3
2007 1217 1
2008 1 1
2008 5 1
2008 35 2
2008 79 1
2008 91 1
2008 122 2
2008 142 1
2008 153 1
2008 169 1
2008 191 1
2008 214 1
2008 252 1
2008 260 1
2008 279 1
2008 325 1
2008 327 1
2008 522 1
2008 562 4
2008 647 1
2008 648 1
2008 669 1
2008 764 1
2008 774 1
2008 791 1
2008 876 1
2008 988 1
2008 1096 1
2008 1206 1
2009 1 2
2009 107 1
2009 117 1
2009 120 1
2009 132 1
2009 144 1
2009 172 1
2009 189 1
2009 226 2
2009 234 1
2009 285 1
2009 309 1
2009 312 3
2009 315 2
2009 384 1
2009 392 1
2009 443 1
2009 492 3
2009 542 1
2009 576 1
2009 614 1
2009 653 2
2009 655 3
2009 686 2
2009 814 1
2009 842 1
2009 843 1
2009 903 2
2009 904 1
2009 979 1
2009 1052 1
2009 1095 2
2009 1110 1
2009 1180 3
2009 1222 1
2010 75 1
2010 153 2
2010 157 1
2010 160 1
2010 167 1
2010 252 1
2010 254 2
2010 273 1
2010 278 1
2010 298 3
2010 502 1
2010 504 1
2010 508 1
2010 552 1
2010 591 1
2010 592 1
2010 1062 3
2010 1119 1
2010 1317 3
2010 1324 1
2010 1340 1
2011 3 1
2011 63 1
2011 213 1
2011 258 1
2011 337 4
2011 385 2
2011 429 1
2011 442 1
2011 465 3
2011 528 2
2011 655 1
2011 685 5
2011 694 8
2011 712 3
2011 773 2
2011 774 1
2011 981 1
2011 1062 1
2011 1099 1
2011 1101 1
2011 1121 3
2011 1192 1
2011 1201 3
2011 1253 1
2011 1264 2
2011 1265 5
2011 1267 2
2011 1320 1
2012 1 2
2012 35 2
2012 105 1
2012 109 1
2012 116 1
2012 178 1
2012 192 2
2012 238 1
2012 309 1
2012 371 1
2012 393 2
2012 396 6
2012 405 1
2012 515 2
2012 577 1
2012 595 1
2012 737 1
2012 992 1
2012 1001 1
2013 63 1
2013 65 1
2013 108 1
2013 117 1
2013 144 1
2013 173 1
2013 238 1
2013 240 1
2013 257 1
2013 285 1
2013 298 1
2013 363 1
2013 375 2
2013 555 1
2013 581 1
2013 585 1
2013 633 1
2013 718 1
2013 1006 1
2013 1034 1
2013 1072 1
2013 1082 1
2014 35 5
2014 153 1
2014 170 1
2014 212 2
2014 258 1
2014 319 1
2014 433 1
2014 460 1
2014 594 4
2014 685 16
2014 712 1
2014 726 1
2014 819 1
2014 822 1
2014 900 1
2014 960 1
2014 1007 1
2014 1068 2
2014 1270 2
2014 1316 1
2014 1322 5
2015 32 2
2015 34 1
2015 66 1
2015 132 1
2015 139 1
2015 144 2
2015 151 1
2015 168 6
2015 175 1
2015 202 1
2015 286 1
2015 325 1
2015 337 1
2015 346 1
2015 375 2
2015 458 1
2015 508 1
2015 667 1
2015 822 1
2015 1042 1
2015 1197 1
2016 32 2
2016 153 1
2016 190 1
2016 291 1
2016 303 1
2016 384 1
2016 442 1
2016 527 1
2016 581 1
2016 739 2
2016 778 2
2016 781 2
2016 807 1
2016 888 5
2016 1124 1
2017 13 2
2017 35 8
2017 36 1
2017 117 2
2017 215 2
2017 259 5
2017 412 1
2017 484 1
2017 556 1
2017 673 1
2017 678 3
2018 14 1
2018 15 2
2018 71 1
2018 80 4
2018 153 1
2018 236 2
2018 256 1
2018 266 2
2018 274 1
2018 285 1
2018 291 1
2018 334 3
2018 379 1
2018 555 1
2018 616 1
2018 655 1
2018 684 1
2018 719 1
2018 721 1
2018 821 3
2018 846 1
2018 865 1
2018 1311 1
2019 15 3
2019 48 1
2019 54 1
2019 70 1
2019 119 1
2019 139 5
2019 153 1
2019 163 2
2019 167 9
2019 184 1
2019 192 1
2019 212 1
2019 233 1
2019 299 1
2019 306 4
2019 309 1
2019 325 1
2019 422 2
2019 426 2
2019 442 1
2019 463 2
2019 535 1
2019 566 1
2019 573 4
2019 584 3
2019 619 1
2019 635 1
2019 646 1
2019 658 5
2019 931 1
2019 1059 1
2020 10 1
2020 21 1
2020 35 1
2020 66 1
2020 75 1
2020 141 1
2020 153 1
2020 179 1
2020 195 1
2020 213 1
2020 234 1
2020 285 1
2020 286 1
2020 366 1
2020 388 1
2020 405 1
2020 453 1
2020 526 1
2020 704 2
2021 45 1
2021 76 1
2021 80 1
2021 110 1
2021 187 1
2021 239 1
2021 266 1
2021 306 3
2021 356 1
2021 364 2
2021 366 1
2021 378 5
2021 381 1
2021 422 1
2021 513 1
2021 534 1
2021 624 1
2021 635 1
2021 693 1
2021 775 3
2021 811 3
2021 812 2
2021 903 1
2021 985 2
2021 1131 2
2022 10 1
2022 13 1
2022 21 1
2022 48 4
2022 50 3
2022 70 1
2022 71 1
2022 134 2
2022 153 1
2022 161 1
2022 183 1
2022 195 1
2022 204 1
2022 291 1
2022 392 4
2022 460 1
2022 486 1
2022 494 1
2022 595 1
2022 607 1
2022 642 2
2022 831 1
2022 1007 1
2022 1011 1
2022 1012 1
2022 1036 1
2022 1119 1
2022 1274 1
2022 1326 1
2023 29 2
2023 53 1
2023 90 1
2023 98 1
2023 105 1
2023 139 1
2023 144 1
2023 157 1
2023 182 1
2023 187 1
2023 371 2
2023 390 1
2023 458 1
2023 481 1
2023 718 1
2023 784 1
2023 848 1
2023 1141 1
2023 1178 10
2023 1285 1
2024 1 1
2024 25 1
2024 35 1
2024 70 1
2024 140 1
2024 143 1
2024 146 1
2024 147 2
2024 150 1
2024 178 1
2024 212 3
2024 226 1
2024 238 3
2024 267 3
2024 273 1
2024 337 2
2024 363 1
2024 364 1
2024 398 1
2024 418 1
2024 475 2
2024 477 1
2024 531 1
2024 655 1
2024 665 2
2024 684 1
2024 685 1
2024 712 6
2024 810 1
2024 876 1
2024 889 1
2024 901 1
2024 945 2
2024 954 1
2024 978 1
2024 990 1
2024 1015 8
2024 1036 1
2024 1049 1
2024 1244 6
2024 1267 1
2025 28 1
2025 65 1
2025 90 1
2025 99 3
2025 226 1
2025 285 1
2025 297 1
2025 335 1
2025 339 1
2025 386 1
2025 389 1
2025 405 1
2025 477 1
2025 512 1
2025 562 1
2025 660 1
2025 666 2
2025 685 2
2025 712 4
2025 769 1
2025 806 1
2025 822 1
2025 1113 3
2025 1220 1
2025 1317 1
2026 13 2
2026 21 2
2026 29 4
2026 39 3
2026 40 4
2026 66 2
2026 90 1
2026 160 1
2026 183 1
2026 206 1
2026 214 2
2026 254 4
2026 262 1
2026 311 4
2026 334 1
2026 337 1
2026 365 1
2026 545 1
2026 551 2
2026 573 3
2026 582 4
2026 602 1
2026 639 1
2026 660 1
2026 693 1
2026 705 1
2026 751 1
2026 787 1
2026 862 2
2026 903 3
2026 910 3
2026 1129 1
2026 1130 1
2026 1195 2
2027 35 8
2027 81 1
2027 153 1
2027 192 1
2027 215 7
2027 295 1
2027 306 1
2027 327 1
2027 370 10
2027 382 1
2027 396 2
2027 419 1
2027 422 1
2027 465 1
2027 635 1
2027 737 3
2027 739 1
2027 958 1
2028 9 1
2028 32 1
2028 45 1
2028 57 1
2028 157 1
2028 169 1
2028 170 1
2028 258 1
2028 302 1
2028 311 1
2028 375 1
2028 429 1
2028 633 1
2028 916 1
2028 1142 1
2028 1215 1
2029 35 1
2029 67 1
2029 70 1
2029 115 2
2029 385 1
2029 442 1
2029 530 1
2029 602 1
2029 660 1
2029 824 1
2029 1178 1
2030 1 5
2030 20 1
2030 25 2
2030 27 1
2030 32 1
2030 76 1
2030 78 2
2030 80 1
2030 93 1
2030 95 1
2030 98 2
2030 115 1
2030 125 1
2030 139 1
2030 150 1
2030 153 1
2030 158 2
2030 163 3
2030 168 2
2030 169 3
2030 170 1
2030 212 4
2030 216 2
2030 229 1
2030 232 1
2030 233 1
2030 248 1
2030 252 1
2030 266 3
2030 275 1
2030 277 2
2030 285 1
2030 307 1
2030 312 2
2030 318 1
2030 331 1
2030 345 1
2030 364 1
2030 378 1
2030 388 1
2030 411 1
2030 412 2
2030 413 1
2030 440 1
2030 460 1
2030 464 1
2030 470 1
2030 471 1
2030 473 2
2030 498 1
2030 514 1
2030 528 1
2030 556 2
2030 561 1
2030 597 1
2030 612 1
2030 655 1
2030 660 5
2030 675 1
2030 719 1
2030 744 1
2030 797 1
2030 846 1
2030 848 1
2030 883 1
2030 966 1
2030 1054 1
2030 1170 1
2030 1211 1
2030 1279 11
2031 1 1
2031 80 5
2031 88 2
2031 116 1
2031 132 1
2031 133 3
2031 168 2
2031 175 1
2031 187 1
2031 195 1
2031 254 1
2031 314 1
2031 326 1
2031 329 5
2031 366 1
2031 375 1
2031 410 1
2031 415 1
2031 422 1
2031 442 1
2031 454 1
2031 462 1
2031 555 1
2031 735 1
2031 804 1
2031 822 1
2031 966 1
2031 1002 2
2031 1066 1
2032 15 1
2032 52 1
2032 92 1
2032 132 8
2032 144 1
2032 150 1
2032 160 1
2032 243 1
2032 281 5
2032 410 1
2032 458 2
2032 542 1
2032 546 1
2032 581 1
2032 594 6
2032 625 1
2032 636 5
2032 638 1
2032 657 1
2032 729 2
2032 860 5
2032 932 1
2032 961 1
2032 965 1
2032 966 1
2032 984 1
2032 1174 1
2033 28 3
2033 52 1
2033 75 4
2033 99 3
2033 115 4
2033 125 4
2033 167 2
2033 186 5
2033 187 1
2033 236 5
2033 267 1
2033 300 5
2033 409 2
2033 473 1
2033 697 4
2033 858 4
2033 1242 1
2033 1330 1
2034 109 1
2034 110 1
2034 151 1
2034 163 1
2034 171 1
2034 175 1
2034 185 1
2034 187 1
2034 289 1
2034 422 1
2034 514 1
2034 515 3
2034 593 1
2034 670 1
2034 675 3
2034 821 1
2034 852 1
2034 902 1
2035 24 1
2035 35 2
2035 52 2
2035 58 2
2035 65 1
2035 90 2
2035 134 1
2035 254 1
2035 266 1
2035 286 5
2035 289 4
2035 300 1
2035 331 1
2035 595 1
2035 685 5
2035 712 1
2035 784 1
2035 823 1
2035 868 1
2035 875 1
2035 900 2
2035 940 1
2035 981 1
2035 1000 2
2035 1068 1
2035 1096 1
2035 1240 1
2035 1242 1
2035 1253 2
2035 1270 6
2035 1275 1
2035 1289 1
2035 1313 1
2035 1316 1
2035 1335 1
2036 41 1
2036 80 5
2036 133 1
2036 171 1
2036 267 2
2036 286 4
2036 331 1
2036 345 1
2036 388 1
2036 475 3
2036 512 2
2036 821 1
2036 1174 2
2037 1 1
2037 18 1
2037 25 1
2037 29 3
2037 32 1
2037 40 3
2037 52 3
2037 64 1
2037 109 1
2037 116 2
2037 139 1
2037 160 1
2037 214 1
2037 238 1
2037 240 1
2037 254 1
2037 387 2
2037 422 1
2037 444 2
2037 445 1
2037 514 1
2037 630 1
2037 639 1
2037 751 1
2037 1120 1
2037 1203 1
2038 5 1
2038 32 1
2038 65 1
2038 75 4
2038 119 1
2038 149 1
2038 157 1
2038 167 4
2038 224 1
2038 247 1
2038 277 1
2038 298 1
2038 301 1
2038 331 2
2038 336 10
2038 514 2
2038 834 1
2038 882 2
2038 903 1
2038 971 2
2038 980 2
2038 983 1
2038 1039 1
2038 1042 1
2038 1137 1
2038 1324 1
2039 29 1
2039 143 1
2039 153 1
2039 252 1
2039 254 1
2039 363 1
2039 425 1
2039 442 1
2039 464 1
2039 501 1
2039 527 1
2039 551 1
2039 660 1
2039 685 3
2039 777 1
2039 862 1
2039 900 3
2039 912 1
2039 964 6
2039 1101 1
2039 1164 1
2039 1223 9
2039 1289 2
2039 1322 2
2040 21 1
2040 28 1
2040 48 1
2040 122 1
2040 191 1
2040 192 1
2040 232 1
2040 237 1
2040 266 4
2040 267 1
2040 353 1
2040 372 1
2040 406 4
2040 413 1
2040 415 1
2040 440 1
2040 548 1
2040 562 1
2040 635 1
2040 643 1
2040 655 1
2040 722 1
2040 730 1
2040 1151 1
2041 25 1
2041 47 1
2041 82 1
2041 87 1
2041 91 1
2041 100 1
2041 153 2
2041 187 1
2041 189 1
2041 231 2
2041 251 1
2041 267 2
2041 576 1
2041 776 1
2041 846 1
2041 880 1
2041 931 1
2041 975 1
2041 1043 1
2041 1048 1
2041 1304 1
2042 22 1
2042 25 1
2042 41 1
2042 45 1
2042 82 1
2042 116 1
2042 119 1
2042 185 1
2042 202 1
2042 204 1
2042 238 1
2042 243 2
2042 278 2
2042 332 1
2042 394 1
2042 466 1
2042 547 1
2042 580 1
2042 581 1
2042 583 1
2042 714 1
2042 787 5
2042 866 5
2042 885 1
2043 52 1
2043 83 1
2043 90 11
2043 91 1
2043 157 1
2043 168 2
2043 172 5
2043 285 4
2043 298 1
2043 329 1
2043 375 1
2043 415 1
2043 422 1
2043 510 1
2043 550 2
2043 555 1
2043 584 1
2043 722 1
2043 844 1
2043 1073 1
2044 34 1
2044 35 1
2044 97 2
2044 142 1
2044 150 1
2044 151 1
2044 221 3
2044 226 1
2044 243 1
2044 257 1
2044 382 1
2044 460 2
2044 477 1
2044 595 1
2044 666 1
2044 685 6
2044 712 2
2044 731 2
2044 910 1
2044 914 1
2044 1007 1
2044 1015 1
2044 1108 1
2044 1173 2
2044 1265 1
2044 1271 1
2044 1313 3
2044 1317 2
2044 1318 1
2045 232 1
2045 266 2
2045 358 4
2045 372 1
2045 730 1
2045 1151 2
2046 9 1
2046 11 3
2046 25 1
2046 27 1
2046 29 1
2046 34 1
2046 35 1
2046 41 1
2046 73 1
2046 90 1
2046 208 1
2046 225 1
2046 229 1
2046 461 1
2046 594 3
2046 595 1
2046 606 1
2046 660 1
2046 705 1
2046 749 3
2046 802 1
2046 862 1
2046 864 2
2046 900 1
2046 903 1
2046 958 1
2046 988 1
2046 994 3
2046 1000 1
2046 1028 1
2046 1072 4
2046 1099 1
2046 1288 3
2046 1340 2
2047 1 2
2047 21 1
2047 29 1
2047 65 2
2047 75 3
2047 142 1
2047 153 1
2047 175 1
2047 219 1
2047 277 1
2047 338 1
2047 350 1
2047 365 1
2047 442 1
2047 499 1
2047 531 1
2047 554 1
2047 642 1
2047 662 1
2047 1194 1
2047 1308 1
2048 80 10
2048 153 1
2048 157 2
2048 170 1
2048 187 1
2048 192 2
2048 283 2
2048 300 2
2048 338 3
2048 364 1
2048 421 1
2048 512 2
2048 514 1
2048 530 1
2048 583 1
2048 660 2
2048 670 1
2048 932 1
2048 940 1
2048 995 2
2049 21 7
2049 22 2
2049 42 1
2049 63 1
2049 90 3
2049 110 1
2049 143 7
2049 146 1
2049 171 1
2049 183 1
2049 212 5
2049 214 1
2049 218 2
2049 226 2
2049 277 1
2049 286 2
2049 289 2
2049 332 1
2049 514 2
2049 570 5
2049 685 3
2049 688 4
2049 864 2
2049 900 1
2049 945 5
2049 981 1
2049 992 1
2049 1111 7
2049 1154 1
2049 1286 1
2049 1295 7
2050 1 1
2050 7 4
2050 80 1
2050 126 9
2050 143 1
2050 153 1
2050 182 1
2050 215 1
2050 249 3
2050 257 1
2050 259 1
2050 410 1
2050 419 1
2050 471 1
2050 554 2
2050 596 1
2050 645 1
2050 669 1
2050 875 1
2050 990 1
2051 6 5
2051 45 2
2051 47 1
2051 75 1
2051 90 1
2051 104 7
2051 162 1
2051 168 2
2051 186 2
2051 238 1
2051 294 1
2051 383 1
2051 444 1
2051 515 1
2051 574 1
2051 594 1
2051 685 1
2051 864 1
2051 891 1
2051 1096 2
2052 10 1
2052 11 2
2052 16 1
2052 41 2
2052 126 4
2052 158 2
2052 279 1
2052 285 1
2052 360 1
2052 413 2
2052 511 1
2052 647 1
2052 709 1
2052 845 1
2053 77 2
2053 86 1
2053 157 1
2053 160 3
2053 245 1
2053 283 1
2053 296 2
2053 530 1
2053 583 1
2053 616 3
2053 703 1
2053 998 1
2053 1038 2
2053 1178 1
2053 1315 3
2054 13 1
2054 50 3
2054 79 3
2054 372 1
2054 389 1
2054 458 1
2054 460 1
2054 599 1
2054 649 2
2054 819 1
2054 954 2
2054 1011 2
2054 1072 2
2054 1076 1
2054 1119 1
2054 1121 1
2054 1225 6
2054 1268 3
2054 1272 1
2054 1294 2
2055 5 1
2055 21 5
2055 44 3
2055 48 18
2055 65 1
2055 81 13
2055 92 2
2055 122 6
2055 198 1
2055 257 1
2055 647 8
2055 857 5
2055 927 1
2055 954 1
2055 1232 3
2055 1242 1
2056 6 1
2056 22 2
2056 27 2
2056 29 1
2056 65 2
2056 80 1
2056 92 3
2056 146 4
2056 147 1
2056 169 1
2056 175 1
2056 178 1
2056 183 1
2056 216 3
2056 217 1
2056 224 2
2056 267 2
2056 405 3
2056 454 1
2056 483 1
2056 589 2
2056 602 1
2056 631 1
2056 645 2
2056 705 3
2056 710 1
2056 712 5
2056 721 1
2056 731 2
2056 885 2
2056 908 1
2056 1009 1
2056 1084 2
2056 1104 1
2056 1208 2
2056 1261 1
2057 5 1
2057 21 2
2057 41 1
2057 75 2
2057 86 3
2057 95 1
2057 140 1
2057 153 5
2057 187 1
2057 212 1
2057 222 2
2057 234 1
2057 238 1
2057 259 1
2057 267 1
2057 302 1
2057 412 1
2057 429 1
2057 484 1
2057 520 1
2057 552 6
2057 569 1
2057 621 1
2057 708 1
2057 744 1
2057 809 2
2057 1271 1
2058 9 1
2058 12 6
2058 25 1
2058 45 1
2058 86 1
2058 92 4
2058 169 1
2058 172 1
2058 193 1
2058 202 1
2058 231 1
2058 257 1
2058 258 2
2058 302 1
2058 312 1
2058 316 1
2058 329 1
2058 337 1
2058 340 1
2058 366 1
2058 375 1
2058 422 6
2058 518 1
2058 567 1
2058 581 1
2058 632 2
2058 657 1
2058 744 1
2058 814 3
2058 981 1
2058 1081 1
2058 1092 2
2058 1183 2
2058 1209 1
2058 1218 1
2058 1299 2
2058 1327 2
2058 1328 4
2058 1341 2
2058 1342 1
2059 11 1
2059 12 2
2059 35 1
2059 45 2
2059 81 1
2059 87 2
2059 90 1
2059 158 1
2059 190 1
2059 221 1
2059 256 1
2059 302 1
2059 325 1
2059 660 2
2059 685 2
2059 716 1
2059 731 1
2059 807 1
2059 819 1
2059 953 1
2059 1084 1
2059 1164 1
2059 1264 2
2059 1287 1
2059 1289 2
2060 49 2
2060 87 1
2060 214 2
2060 285 1
2060 305 1
2060 549 1
2060 583 1
2060 606 2
2060 645 4
2060 680 1
2060 733 1
2060 986 3
2060 1052 1
2060 1234 1
2060 1242 5
2061 49 1
2061 80 1
2061 105 1
2061 143 1
2061 163 1
2061 183 1
2061 203 1
2061 230 1
2061 246 1
2061 251 1
2061 259 1
2061 300 1
2061 306 4
2061 356 1
2061 401 1
2061 413 1
2061 540 1
2061 685 5
2061 864 2
2061 900 3
2062 1 2
2062 29 1
2062 49 1
2062 62 3
2062 72 4
2062 153 1
2062 187 1
2062 285 1
2062 300 1
2062 338 3
2062 432 1
2062 443 2
2062 512 1
2062 685 2
2062 822 1
2062 992 1
2062 1077 3
2062 1083 1
2063 13 1
2063 44 1
2063 90 9
2063 160 1
2063 184 4
2063 214 5
2063 239 1
2063 254 1
2063 266 1
2063 306 2
2063 429 1
2063 470 1
2063 488 1
2063 673 1
2063 685 9
2063 744 1
2063 822 1
2063 900 2
2063 983 1
2063 1086 2
2063 1236 1
2063 1262 1
2063 1320 4
2063 1326 1
2063 1336 4
2064 15 2
2064 45 1
2064 80 2
2064 83 1
2064 238 1
2064 286 2
2064 290 1
2064 421 1
2064 426 1
2064 601 1
2064 705 1
2064 812 1
2064 819 1
2064 954 1
2064 985 1
2065 1 6
2065 7 1
2065 82 5
2065 93 5
2065 98 1
2065 143 1
2065 153 8
2065 163 1
2065 170 2
2065 225 2
2065 250 1
2065 252 1
2065 319 1
2065 332 1
2065 429 1
2065 442 1
2065 443 1
2065 446 5
2065 528 2
2065 530 1
2065 542 1
2065 544 1
2065 559 2
2065 576 1
2065 650 1
2065 652 1
2065 1181 1
2065 1306 1
2066 7 1
2066 11 1
2066 16 1
2066 25 4
2066 35 1
2066 89 1
2066 115 1
2066 144 1
2066 153 1
2066 164 1
2066 169 1
2066 192 1
2066 429 1
2066 479 3
2066 528 1
2066 595 1
2066 686 2
2066 712 1
2066 761 1
2066 770 1
2066 789 1
2066 837 1
2066 843 1
2066 876 4
2066 1021 1
2066 1052 1
2066 1104 1
2066 1185 1
2066 1248 1
2066 1254 1
2066 1284 1
2066 1340 1
2067 70 5
2067 98 2
2067 146 1
2067 160 2
2067 187 1
2067 267 8
2067 300 1
2067 501 1
2067 595 1
2067 641 2
2067 673 2
2067 684 1
2067 685 2
2067 688 1
2067 798 1
2067 1096 1
2067 1165 1
2068 1 1
2068 16 1
2068 25 1
2068 29 1
2068 35 5
2068 91 4
2068 162 1
2068 170 1
2068 172 1
2068 241 1
2068 251 1
2068 277 6
2068 295 1
2068 335 1
2068 443 1
2068 686 2
2068 750 1
2068 789 6
2068 806 1
2068 962 1
2068 975 2
2068 1184 1
2068 1195 1
2068 1260 1
2068 1278 1
2068 1284 1
2069 2 2
2069 9 2
2069 27 2
2069 29 1
2069 35 1
2069 52 1
2069 72 4
2069 73 1
2069 79 1
2069 82 1
2069 87 1
2069 91 1
2069 115 1
2069 146 2
2069 183 1
2069 212 1
2069 243 1
2069 252 1
2069 257 1
2069 372 1
2069 379 2
2069 594 2
2069 606 1
2069 613 2
2069 638 1
2069 660 1
2069 867 5
2069 1173 1
2069 1253 1
2069 1286 2
2069 1312 1
2069 1313 1
2069 1323 5
2070 21 7
2070 35 1
2070 41 1
2070 70 2
2070 74 1
2070 143 1
2070 177 1
2070 178 1
2070 220 2
2070 281 1
2070 475 2
2070 476 1
2070 576 1
2070 660 3
2070 914 4
2070 1072 2
2070 1289 1
2070 1313 4
2070 1314 3
2071 20 1
2071 266 1
2071 338 1
2071 378 6
2071 612 1
2071 892 1
2071 972 1
2071 1288 1
2072 15 1
2072 45 1
2072 64 1
2072 70 2
2072 76 1
2072 80 8
2072 92 1
2072 109 1
2072 116 1
2072 139 1
2072 149 1
2072 161 1
2072 163 1
2072 169 1
2072 192 2
2072 252 1
2072 311 2
2072 312 1
2072 324 1
2072 332 1
2072 345 1
2072 411 1
2072 421 4
2072 461 1
2072 475 1
2072 547 4
2072 1157 1
2073 65 1
2073 70 1
2073 92 1
2073 170 1
2073 208 2
2073 286 1
2073 289 4
2073 300 1
2073 356 4
2073 382 1
2073 514 4
2073 560 1
2073 685 2
2073 712 1
2073 784 1
2073 877 3
2073 978 1
2073 1017 3
2073 1084 7
2073 1111 2
2073 1114 1
2073 1124 1
2073 1196 1
2073 1227 4
2073 1312 1
2074 5 1
2074 80 2
2074 123 3
2074 241 3
2074 313 6
2074 409 1
2074 564 2
2074 942 1
2074 992 1
2074 1206 1
2075 5 3
2075 16 1
2075 19 2
2075 25 4
2075 30 3
2075 46 1
2075 50 1
2075 57 1
2075 65 1
2075 75 2
2075 91 1
2075 115 1
2075 143 1
2075 183 1
2075 191 2
2075 212 1
2075 234 1
2075 257 1
2075 260 1
2075 292 1
2075 302 1
2075 335 1
2075 345 1
2075 368 1
2075 390 2
2075 443 2
2075 463 1
2075 465 1
2075 542 1
2075 556 2
2075 583 1
2075 595 1
2075 605 1
2075 614 1
2075 765 5
2075 766 1
2075 791 3
2075 876 1
2075 978 1
2075 1021 1
2076 171 1
2076 232 1
2076 233 1
2076 259 1
2076 294 1
2076 332 1
2076 445 1
2076 685 1
2076 793 1
2076 1027 1
2076 1046 2
2076 1055 2
2076 1145 1
2077 11 1
2077 76 1
2077 80 1
2077 143 1
2077 168 1
2077 170 1
2077 178 1
2077 179 6
2077 186 1
2077 260 1
2077 266 1
2077 286 1
2077 326 1
2077 359 2
2077 465 1
2077 563 1
2077 590 1
2077 724 1
2077 1191 1
2078 16 1
2078 21 1
2078 35 1
2078 87 2
2078 115 3
2078 197 1
2078 682 1
2078 683 3
2078 767 1
2078 789 1
2078 1284 1
2078 1285 1
2078 1332 2
2079 5 2
2079 19 1
2079 29 1
2079 39 1
2079 40 1
2079 77 1
2079 80 2
2079 83 1
2079 90 2
2079 143 1
2079 175 1
2079 179 1
2079 185 1
2079 192 1
2079 212 1
2079 220 1
2079 229 1
2079 243 1
2079 257 2
2079 259 1
2079 266 1
2079 294 2
2079 302 1
2079 311 1
2079 325 1
2079 371 5
2079 407 1
2079 419 6
2079 425 1
2079 475 1
2079 488 1
2079 530 1
2079 582 2
2079 878 1
2079 1084 2
2079 1111 4
2079 1154 1
2079 1188 2
2079 1233 1
2080 80 3
2080 114 1
2080 139 1
2080 151 1
2080 187 1
2080 203 1
2080 269 6
2080 285 1
2080 305 1
2080 515 1
2080 536 3
2080 957 1
2081 24 1
2081 86 1
2081 94 1
2081 143 3
2081 146 1
2081 153 2
2081 178 1
2081 260 1
2081 266 1
2081 277 1
2081 356 1
2081 413 2
2081 540 1
2081 553 1
2081 624 1
2081 650 1
2081 652 1
2081 856 2
2081 975 1
2081 1024 1
2082 75 1
2082 95 6
2082 102 1
2082 285 4
2082 303 1
2082 372 1
2082 426 1
2082 461 1
2082 560 1
2082 655 1
2082 715 2
2082 1239 1
2083 7 3
2083 78 1
2083 216 1
2083 223 1
2083 268 1
2083 319 1
2083 326 1
2083 362 1
2083 363 1
2083 393 1
2083 412 1
2083 433 1
2083 435 1
2083 725 1
2083 952 1
2083 960 1
2084 1 7
2084 52 1
2084 109 2
2084 126 3
2084 163 1
2084 212 1
2084 238 1
2084 390 2
2084 394 1
2084 511 1
2084 679 1
2084 705 1
2084 718 1
2084 814 2
2084 903 1
2084 1167 2
2084 1180 3
2085 1 1
2085 33 2
2085 45 1
2085 103 1
2085 232 1
2085 302 1
2085 312 2
2085 360 1
2085 363 1
2085 415 1
2085 442 1
2085 465 1
2085 489 1
2085 508 2
2085 530 2
2085 537 1
2085 563 1
2085 694 1
2085 697 1
2085 701 1
2085 746 1
2085 752 1
2085 762 1
2085 802 1
2085 859 1
2085 947 1
2085 1066 2
2085 1161 1
2085 1170 1
2085 1219 1
2085 1292 1
2085 1311 1
2086 70 2
2086 139 1
2086 153 1
2086 158 1
2086 183 1
2086 199 1
2086 269 1
2086 332 1
2086 637 1
2087 5 1
2087 25 3
2087 45 3
2087 75 6
2087 86 1
2087 101 2
2087 125 8
2087 157 2
2087 167 5
2087 179 3
2087 281 2
2087 331 3
2087 442 2
2087 530 1
2087 573 2
2087 646 1
2087 707 1
2087 1052 1
2087 1222 1
2088 1 3
2088 10 3
2088 13 1
2088 21 1
2088 29 1
2088 70 3
2088 80 5
2088 139 3
2088 157 4
2088 175 1
2088 254 2
2088 334 1
2088 369 1
2088 388 2
2088 405 1
2088 528 1
2088 666 1
2088 672 1
2088 718 1
2088 841 1
2088 848 2
2089 21 1
2089 47 1
2089 119 1
2089 135 1
2089 150 4
2089 191 1
2089 229 1
2089 283 1
2089 304 1
2089 338 1
2089 349 1
2089 372 2
2089 381 1
2089 389 1
2089 443 2
2089 540 1
2089 553 6
2089 660 2
2089 763 1
2089 876 1
2089 908 1
2089 948 5
2089 1011 4
2089 1021 1
2089 1072 2
2089 1121 1
2090 232 1
2090 266 1
2090 372 1
2090 840 2
2090 1151 1
2091 15 1
2091 39 1
2091 41 1
2091 70 1
2091 77 1
2091 80 1
2091 87 1
2091 90 1
2091 160 1
2091 167 1
2091 187 1
2091 199 1
2091 214 2
2091 234 1
2091 245 1
2091 259 2
2091 281 2
2091 306 5
2091 383 2
2091 522 2
2091 582 1
2091 685 2
2091 841 1
2091 1154 3
2091 1334 3
2092 171 2
2092 195 1
2092 208 1
2092 209 1
2092 210 1
2092 256 2
2092 257 2
2092 275 1
2092 278 1
2092 294 1
2092 305 2
2092 393 1
2092 511 1
2092 636 1
2092 652 1
2092 814 1
2092 1143 1
2092 1297 1
2093 80 3
2093 180 1
2093 182 1
2093 229 1
2093 300 14
2093 305 2
2093 334 3
2093 371 5
2093 421 1
2093 515 1
2093 583 1
2093 623 1
2093 649 2
2093 843 1
2093 865 3
2093 992 1
2093 1052 2
2093 1103 1
2093 1159 1
2094 7 1
2094 10 1
2094 17 1
2094 24 4
2094 25 2
2094 45 1
2094 115 2
2094 143 2
2094 153 7
2094 195 1
2094 260 1
2094 325 1
2094 390 1
2094 471 1
2094 512 1
2094 527 2
2094 542 1
2094 556 2
2094 581 1
2094 601 1
2094 671 1
2094 791 2
2094 846 1
2094 1052 1
2094 1167 1
2095 44 1
2095 95 1
2095 101 1
2095 102 2
2095 148 10
2095 178 1
2095 185 1
2095 264 3
2095 306 2
2095 448 1
2095 655 1
2095 691 1
2095 696 1
2095 764 1
2095 1211 1
2096 5 1
2096 15 1
2096 45 1
2096 75 1
2096 80 1
2096 120 1
2096 195 1
2096 213 1
2096 224 2
2096 236 1
2096 334 1
2096 338 1
2096 429 2
2096 530 1
2096 585 1
2096 632 1
2096 754 2
2096 808 1
2096 824 1
2096 904 1
2096 1005 1
2096 1009 1
2096 1292 1
2097 28 2
2097 45 2
2097 47 1
2097 52 2
2097 84 2
2097 100 1
2097 153 1
2097 216 3
2097 218 4
2097 220 1
2097 231 2
2097 232 1
2097 281 3
2097 286 3
2097 296 2
2097 330 1
2097 464 1
2097 632 1
2097 648 1
2097 655 1
2097 933 1
2098 15 1
2098 45 1
2098 82 1
2098 168 1
2098 237 2
2098 286 3
2098 375 1
2098 440 2
2098 533 2
2098 849 1
2098 1025 1
2098 1089 2
2098 1140 2
2098 1150 1
2099 10 1
2099 25 1
2099 27 2
2099 94 1
2099 99 5
2099 110 1
2099 141 1
2099 143 1
2099 153 3
2099 167 1
2099 222 1
2099 227 1
2099 251 1
2099 254 1
2099 274 1
2099 301 4
2099 376 1
2099 382 1
2099 412 1
2099 511 1
2099 552 4
2099 654 1
2099 773 1
2099 1137 1
2100 21 3
2100 98 1
2100 157 2
2100 167 2
2100 254 4
2100 298 1
2100 299 1
2100 331 1
2100 405 3
2100 410 1
2100 540 1
2100 941 1
2100 1324 1
2101 7 2
2101 13 1
2101 40 2
2101 50 2
2101 79 1
2101 117 1
2101 124 1
2101 153 1
2101 191 1
2101 229 1
2101 238 1
2101 244 1
2101 338 1
2101 421 1
2101 517 1
2101 553 5
2101 556 1
2101 665 1
2101 753 1
2101 844 1
2101 908 1
2101 1041 4
2101 1305 1
2102 1 3
2102 21 3
2102 90 1
2102 150 12
2102 171 2
2102 178 1
2102 183 1
2102 186 2
2102 212 1
2102 254 1
2102 283 5
2102 389 1
2102 442 1
2102 468 1
2102 476 9
2102 477 4
2102 532 1
2102 607 6
2102 685 3
2102 730 1
2102 953 5
2102 1007 14
2102 1012 2
2102 1036 3
2102 1076 1
2102 1090 1
2102 1290 1
2102 1294 2
2102 1326 1
2102 1336 2
2103 27 1
2103 86 1
2103 92 4
2103 179 1
2103 202 1
2103 286 1
2103 289 1
2103 300 1
2103 356 2
2103 363 1
2103 375 1
2103 427 1
2103 442 2
2103 468 1
2103 475 1
2103 550 1
2103 552 1
2103 603 1
2103 685 1
2103 693 1
2103 753 1
2103 864 1
2103 958 1
2103 1111 5
2103 1137 2
2104 13 3
2104 45 1
2104 49 1
2104 80 2
2104 82 1
2104 95 2
2104 115 1
2104 150 2
2104 153 1
2104 218 1
2104 257 1
2104 331 1
2104 376 2
2104 379 1
2104 442 1
2104 460 2
2104 556 1
2104 581 1
2104 660 1
2104 670 1
2104 1011 1
2104 1149 4
2104 1238 1
2105 35 1
2105 78 1
2105 91 1
2105 143 1
2105 164 1
2105 171 2
2105 209 2
2105 266 1
2105 294 1
2105 356 1
2105 382 1
2105 511 2
2105 531 1
2105 648 1
2105 682 2
2105 697 1
2105 743 1
2105 856 1
2105 976 1
2105 1070 1
2105 1104 1
2105 1260 1
2105 1298 1
2105 1333 1
2106 45 1
2106 50 3
2106 70 1
2106 125 3
2106 151 1
2106 169 1
2106 181 1
2106 187 1
2106 218 4
2106 257 1
2106 285 4
2106 302 5
2106 382 1
2106 442 1
2106 460 5
2106 468 1
2106 472 7
2106 543 1
2106 552 5
2106 559 1
2106 564 1
2106 642 1
2106 654 1
2106 655 1
2106 721 1
2106 904 1
2106 1019 1
2107 116 1
2107 151 1
2107 153 2
2107 187 2
2107 193 2
2107 218 2
2107 232 2
2107 240 1
2107 249 2
2107 257 1
2107 285 1
2107 303 1
2107 312 2
2107 336 1
2107 379 1
2107 412 1
2107 479 1
2107 483 1
2107 489 1
2107 846 1
2107 919 1
2107 1063 1
2107 1180 3
2107 1210 1
2108 42 1
2108 70 1
2108 101 1
2108 125 3
2108 218 4
2108 220 2
2108 225 5
2108 254 1
2108 412 1
2108 1027 2
2109 5 1
2109 8 1
2109 21 1
2109 41 1
2109 57 1
2109 62 1
2109 75 5
2109 117 1
2109 149 1
2109 157 3
2109 160 3
2109 167 4
2109 175 4
2109 178 1
2109 187 1
2109 192 1
2109 208 1
2109 229 2
2109 281 1
2109 302 7
2109 321 1
2109 331 1
2109 332 2
2109 342 1
2109 360 1
2109 385 1
2109 415 2
2109 442 1
2109 504 1
2109 530 1
2109 543 2
2109 554 2
2109 561 1
2109 655 3
2109 658 1
2109 730 1
2109 800 2
2109 1077 1
2109 1162 1
2110 7 2
2110 27 1
2110 40 1
2110 45 1
2110 79 2
2110 84 1
2110 100 1
2110 117 4
2110 153 1
2110 170 1
2110 171 5
2110 178 1
2110 191 1
2110 208 1
2110 209 1
2110 210 2
2110 421 2
2110 517 2
2110 553 9
2110 556 4
2110 665 1
2110 697 1
2110 833 1
2110 983 1
2110 987 1
2110 1209 1
2110 1305 2
2111 35 2
2111 64 2
2111 105 1
2111 185 1
2111 216 1
2111 232 1
2111 280 1
2111 281 1
2111 290 1
2111 370 1
2111 371 1
2111 375 1
2111 384 5
2111 396 2
2111 409 3
2111 448 1
2111 524 2
2111 526 3
2111 874 1
2111 942 1
2111 1117 2
2112 1 11
2112 109 1
2112 135 2
2112 143 1
2112 168 1
2112 183 1
2112 238 2
2112 253 1
2112 257 1
2112 295 1
2112 331 1
2112 344 1
2112 415 1
2112 445 1
2112 484 2
2112 518 1
2112 591 1
2112 625 1
2112 649 2
2112 703 1
2112 814 3
2112 1131 2
2112 1243 1
2113 27 1
2113 65 1
2113 331 1
2113 382 2
2113 442 1
2113 477 2
2113 685 4
2113 810 2
2114 9 1
2114 17 1
2114 22 1
2114 29 1
2114 42 2
2114 90 1
2114 111 1
2114 208 1
2114 266 1
2114 390 1
2114 393 1
2114 470 1
2114 479 2
2114 527 2
2114 530 1
2114 581 1
2114 662 1
2114 669 1
2114 683 1
2114 685 5
2114 749 1
2114 824 1
2114 859 1
2114 962 2
2114 1011 1
2114 1084 3
2114 1096 1
2114 1111 12
2114 1114 1
2114 1124 1
2114 1128 1
2114 1130 1
2114 1275 1
2114 1284 1
2114 1285 1
2114 1302 2
2114 1306 1
2115 11 1
2115 83 1
2115 168 1
2115 215 2
2115 266 1
2115 279 1
2115 286 1
2115 323 1
2115 378 4
2115 497 1
2115 514 2
2115 515 1
2115 724 4
2115 737 1
2115 874 2
2115 972 1
2115 1088 4
2115 1290 2
2116 41 1
2116 45 2
2116 80 1
2116 192 2
2116 195 1
2116 270 1
2116 311 2
2116 332 1
2116 364 3
2116 397 1
2116 404 1
2116 422 1
2116 464 1
2116 525 1
2116 546 2
2116 744 1
2116 860 1
2116 915 1
2116 1013 1
2117 1 2
2117 3 2
2117 19 1
2117 21 1
2117 29 1
2117 38 1
2117 39 1
2117 45 2
2117 90 5
2117 140 1
2117 157 1
2117 186 1
2117 214 3
2117 218 1
2117 231 1
2117 257 1
2117 258 1
2117 259 1
2117 266 2
2117 285 1
2117 375 1
2117 388 1
2117 489 1
2117 589 1
2117 639 1
2117 685 19
2117 712 1
2117 861 1
2117 900 4
2117 916 2
2117 1062 3
2117 1182 1
2117 1194 1
2117 1240 1
2117 1275 1
2117 1300 4
2118 1 1
2118 78 1
2118 92 2
2118 100 1
2118 139 3
2118 143 1
2118 147 3
2118 153 2
2118 183 1
2118 187 1
2118 234 1
2118 257 1
2118 286 3
2118 312 1
2118 374 1
2118 415 1
2118 528 1
2118 559 3
2118 589 2
2118 599 1
2118 685 4
2118 705 3
2118 962 1
2118 978 1
2118 1022 1
2118 1057 1
2118 1070 2
2118 1264 2
2119 41 1
2119 45 1
2119 48 1
2119 60 2
2119 66 1
2119 80 4
2119 168 1
2119 192 1
2119 238 1
2119 273 1
2119 298 1
2119 821 2
2119 1078 2
2119 1183 1
2119 1218 1
2119 1299 5
2119 1331 1
2119 1341 1
2119 1342 1
2120 70 9
2120 79 1
2120 91 1
2120 110 1
2120 141 1
2120 191 1
2120 225 1
2120 286 3
2120 289 1
2120 335 1
2120 363 1
2120 514 1
2120 562 9
2120 672 3
2120 766 2
2120 880 1
2121 28 1
2121 192 1
2121 208 1
2121 243 1
2121 252 1
2121 306 1
2121 325 1
2121 458 1
2121 525 1
2121 527 1
2121 582 1
2121 681 1
2121 779 1
2121 802 1
2121 845 1
2121 1333 1
2122 28 2
2122 80 1
2122 132 1
2122 168 1
2122 170 1
2122 173 1
2122 175 1
2122 183 2
2122 199 1
2122 229 1
2122 244 1
2122 264 1
2122 554 2
2122 594 1
2122 724 1
2122 886 2
2122 959 1
2123 35 8
2123 136 4
2123 158 1
2123 220 2
2123 250 1
2123 277 1
2123 419 4
2123 475 6
2123 530 1
2123 685 3
2123 810 1
2123 876 1
2123 1011 4
2123 1068 2
2123 1090 2
2123 1225 1
2123 1232 1
2123 1246 1
2123 1267 2
2123 1273 1
2123 1325 2
2123 1326 1
2123 1335 6
2123 1338 1
2124 21 1
2124 79 2
2124 114 4
2124 146 3
2124 260 1
2124 285 2
2124 286 5
2124 589 7
2124 614 1
2124 645 1
2124 660 2
2124 789 1
2124 833 1
2124 1067 1
2124 1125 2
2124 1242 2
2125 1 6
2125 3 1
2125 10 7
2125 13 6
2125 21 2
2125 29 1
2125 32 1
2125 39 1
2125 64 1
2125 80 8
2125 139 1
2125 142 1
2125 153 5
2125 157 4
2125 160 1
2125 175 1
2125 183 1
2125 187 1
2125 238 1
2125 254 3
2125 262 1
2125 288 1
2125 306 1
2125 334 1
2125 364 1
2125 567 1
2125 573 2
2125 616 1
2125 647 1
2125 848 2
2125 865 1
2125 880 1
2125 1038 1
2125 1209 1
2126 9 1
2126 29 1
2126 35 1
2126 81 1
2126 267 1
2126 284 1
2126 422 1
2126 440 1
2126 501 1
2126 505 1
2126 570 1
2126 579 1
2126 589 2
2126 671 1
2126 678 2
2126 685 5
2126 731 1
2126 805 1
2126 810 1
2126 853 1
2126 875 1
2126 938 1
2126 1011 1
2126 1062 1
2126 1101 1
2126 1121 1
2126 1244 1
2126 1300 1
2126 1313 1
2126 1318 1
2127 35 1
2127 82 1
2127 143 4
2127 153 1
2127 178 1
2127 281 1
2127 292 1
2127 335 2
2127 392 3
2127 553 1
2127 780 4
2127 976 1
2127 1084 4
2127 1107 4
2127 1134 1
2127 1285 2
2127 1305 1
2128 10 1
2128 24 1
2128 86 2
2128 94 2
2128 143 5
2128 150 1
2128 153 1
2128 254 1
2128 266 5
2128 277 4
2128 323 1
2128 356 1
2128 379 1
2128 413 1
2128 553 1
2128 622 1
2128 650 2
2128 697 1
2128 705 1
2128 774 1
2128 792 1
2128 844 1
2128 976 1
2129 1 1
2129 95 4
2129 101 1
2129 106 1
2129 125 1
2129 151 1
2129 172 1
2129 212 1
2129 218 2
2129 229 1
2129 311 1
2129 331 2
2129 347 1
2129 415 1
2129 530 1
2129 553 2
2129 1217 1
2129 1298 1
2130 32 1
2130 185 1
2130 226 1
2130 227 2
2130 240 1
2130 323 1
2130 343 2
2130 406 1
2130 409 1
2130 530 1
2130 653 1
2130 662 1
2130 692 1
2130 971 1
2130 1177 2
2130 1229 1
2130 1252 3
2130 1291 1
2131 49 5
2131 52 1
2131 70 1
2131 87 1
2131 147 1
2131 179 1
2131 183 1
2131 214 3
2131 249 4
2131 306 3
2131 375 1
2131 412 1
2131 448 1
2131 549 1
2131 550 1
2131 841 1
2131 877 1
2131 1094 1
2131 1311 1
2131 1322 2
2132 25 1
2132 35 7
2132 89 1
2132 91 3
2132 107 1
2132 144 1
2132 153 3
2132 192 1
2132 232 1
2132 252 1
2132 413 3
2132 414 1
2132 443 1
2132 528 1
2132 554 1
2132 642 1
2132 717 1
2132 743 1
2132 789 3
2132 1021 2
2132 1259 1
2132 1285 1
2133 37 1
2133 60 1
2133 64 1
2133 78 1
2133 80 1
2133 109 1
2133 125 1
2133 158 9
2133 190 1
2133 215 1
2133 227 1
2133 256 1
2133 285 1
2133 286 1
2133 315 1
2133 415 1
2133 442 1
2133 462 1
2133 471 1
2133 481 1
2133 528 1
2133 673 1
2133 711 1
2133 841 1
2133 917 1
2133 978 1
2134 8 2
2134 15 1
2134 55 1
2134 126 2
2134 156 1
2134 161 2
2134 175 1
2134 187 1
2134 192 1
2134 215 1
2134 240 2
2134 264 2
2134 266 2
2134 336 2
2134 425 1
2134 465 1
2134 471 2
2134 527 1
2134 798 1
2134 804 1
2134 814 1
2134 875 3
2134 1029 1
2134 1082 1
2134 1152 4
2134 1228 1
2135 1 1
2135 9 1
2135 29 1
2135 42 3
2135 72 1
2135 90 3
2135 214 1
2135 229 1
2135 378 1
2135 389 1
2135 499 1
2135 522 1
2135 630 1
2135 669 1
2135 685 2
2135 749 1
2135 916 1
2135 945 1
2135 1011 1
2135 1084 1
2135 1111 6
2135 1223 1
2135 1248 1
2135 1293 1
2136 1 1
2136 22 1
2136 25 1
2136 29 2
2136 32 1
2136 66 1
2136 67 1
2136 82 1
2136 156 1
2136 160 1
2136 232 1
2136 454 1
2136 475 5
2136 495 1
2136 570 1
2136 589 1
2136 673 1
2136 685 5
2136 773 1
2136 805 1
2136 862 1
2136 1062 1
2136 1203 1
2136 1300 1
2136 1321 1
2137 49 7
2137 286 2
2137 309 1
2137 382 1
2137 512 1
2137 516 1
2137 712 3
2137 848 1
2137 900 1
2137 1096 1
2137 1113 1
2137 1138 1
2137 1164 1
2137 1253 11
2137 1289 1
2137 1313 1
2138 5 1
2138 77 1
2138 80 3
2138 117 3
2138 123 2
2138 172 2
2138 273 1
2138 285 1
2138 475 3
2138 758 3
2138 932 1
2138 1091 1
2139 13 1
2139 153 1
2139 186 3
2139 191 1
2139 204 1
2139 305 4
2139 460 1
2139 553 9
2139 556 2
2139 588 1
2139 660 1
2139 665 1
2139 763 1
2139 833 3
2139 1072 1
2140 1 2
2140 13 2
2140 16 1
2140 21 1
2140 25 2
2140 35 1
2140 85 1
2140 115 3
2140 443 1
2140 683 1
2140 722 1
2140 789 1
2140 1007 1
2140 1053 1
2140 1184 2
2140 1259 1
2140 1285 1
2140 1332 1
2141 63 2
2141 98 2
2141 212 1
2141 226 2
2141 251 1
2141 305 1
2141 499 1
2141 562 1
2141 589 1
2141 712 1
2141 773 2
2141 814 1
2141 862 1
2141 864 1
2141 1084 4
2141 1111 6
2141 1128 1
2141 1194 1
2141 1293 1
2142 10 1
2142 44 1
2142 79 1
2142 143 1
2142 153 6
2142 238 1
2142 337 1
2142 388 1
2142 446 2
2142 494 6
2142 609 1
2142 716 1
2142 792 1
2142 795 1
2142 844 1
2142 1122 1
2143 52 1
2143 60 1
2143 139 1
2143 149 2
2143 161 1
2143 167 2
2143 185 1
2143 189 2
2143 232 1
2143 254 2
2143 274 1
2143 302 3
2143 331 2
2143 410 1
2143 541 1
2143 784 1
2143 921 1
2143 1161 2
2143 1209 1
2143 1301 2
2144 1 4
2144 5 1
2144 17 1
2144 25 1
2144 27 2
2144 34 3
2144 41 1
2144 42 6
2144 60 1
2144 62 1
2144 63 1
2144 80 1
2144 81 1
2144 82 10
2144 87 1
2144 88 1
2144 90 8
2144 91 1
2144 92 4
2144 98 1
2144 122 3
2144 146 4
2144 153 2
2144 157 1
2144 158 2
2144 160 1
2144 161 1
2144 167 1
2144 171 1
2144 175 1
2144 183 3
2144 184 1
2144 185 1
2144 191 1
2144 192 1
2144 210 1
2144 212 2
2144 213 1
2144 216 1
2144 226 2
2144 229 1
2144 241 1
2144 251 2
2144 252 1
2144 259 1
2144 267 1
2144 269 1
2144 282 1
2144 294 2
2144 299 1
2144 305 1
2144 306 1
2144 310 1
2144 311 1
2144 325 1
2144 326 3
2144 330 1
2144 335 1
2144 347 1
2144 356 3
2144 370 1
2144 376 1
2144 384 1
2144 389 1
2144 405 1
2144 410 1
2144 413 1
2144 422 14
2144 425 1
2144 430 3
2144 454 1
2144 460 1
2144 465 2
2144 470 1
2144 501 4
2144 506 1
2144 518 1
2144 521 1
2144 579 4
2144 582 1
2144 592 1
2144 597 1
2144 609 1
2144 617 1
2144 630 2
2144 649 1
2144 663 1
2144 669 2
2144 673 1
2144 685 8
2144 705 5
2144 712 2
2144 770 1
2144 773 3
2144 774 2
2144 775 1
2144 789 1
2144 824 1
2144 847 2
2144 862 3
2144 900 4
2144 919 1
2144 928 1
2144 931 1
2144 945 1
2144 962 1
2144 989 1
2144 1028 1
2144 1084 9
2144 1086 1
2144 1094 1
2144 1099 1
2144 1101 4
2144 1111 52
2144 1130 1
2144 1137 1
2144 1166 1
2144 1207 1
2144 1236 6
2144 1295 1
2144 1297 2
2144 1302 2
2144 1309 1
2145 77 2
2145 139 4
2145 151 1
2145 178 1
2145 220 1
2145 256 3
2145 283 3
2145 285 1
2145 305 1
2145 376 4
2145 404 1
2145 415 1
2145 463 2
2145 464 1
2145 535 2
2145 539 1
2146 1 2
2146 9 1
2146 25 1
2146 45 1
2146 52 3
2146 53 1
2146 63 1
2146 72 1
2146 73 1
2146 76 1
2146 82 1
2146 87 1
2146 90 1
2146 108 1
2146 169 2
2146 178 1
2146 213 1
2146 221 1
2146 226 1
2146 229 1
2146 234 4
2146 258 1
2146 259 1
2146 327 1
2146 338 1
2146 339 1
2146 363 1
2146 364 4
2146 379 1
2146 389 1
2146 398 1
2146 422 5
2146 429 2
2146 442 1
2146 470 2
2146 487 1
2146 528 1
2146 550 2
2146 567 1
2146 671 1
2146 731 1
2146 749 1
2146 757 1
2146 773 1
2146 847 1
2146 878 1
2146 949 1
2146 1015 1
2146 1101 3
2146 1128 2
2146 1145 1
2146 1149 1
2146 1201 3
2146 1203 5
2146 1240 1
2146 1288 13
2146 1297 1
2146 1304 4
2146 1317 3
2147 11 1
2147 25 1
2147 47 1
2147 71 1
2147 73 1
2147 80 11
2147 134 6
2147 157 3
2147 175 5
2147 192 1
2147 214 3
2147 254 1
2147 306 9
2147 338 1
2147 386 1
2147 387 1
2147 438 1
2147 511 1
2147 537 1
2147 685 2
2147 723 1
2147 862 1
2147 998 1
2147 1232 2
2147 1280 1
2147 1290 1
2147 1297 1
2148 1 1
2148 57 1
2148 60 1
2148 63 1
2148 66 1
2148 70 1
2148 130 1
2148 226 2
2148 232 1
2148 277 1
2148 465 2
2148 471 1
2148 531 1
2148 593 1
2148 759 1
2148 1011 1
2148 1261 1
2149 1 2
2149 5 1
2149 25 1
2149 35 2
2149 39 1
2149 81 1
2149 91 2
2149 98 1
2149 168 2
2149 183 1
2149 375 1
2149 379 2
2149 413 1
2149 511 2
2149 773 1
2149 789 1
2149 1266 2
2150 5 1
2150 11 1
2150 44 1
2150 167 1
2150 264 4
2150 275 1
2150 371 1
2150 372 8
2150 412 1
2150 420 2
2150 442 1
2150 445 2
2150 480 1
2150 502 1
2150 504 1
2150 505 1
2150 586 1
2150 602 2
2150 848 1
2150 943 1
2150 1066 2
2150 1095 1
2150 1228 1
2150 1282 1
2150 1311 1
2151 21 1
2151 25 1
2151 35 1
2151 87 1
2151 449 1
2151 488 1
2151 683 1
2151 789 1
2151 1260 2
2151 1278 3
2151 1284 3
2152 21 1
2152 79 2
2152 146 5
2152 260 2
2152 285 2
2152 286 3
2152 645 1
2152 660 2
2152 705 1
2152 789 1
2152 1234 1
2152 1242 1
2153 50 1
2153 52 1
2153 63 1
2153 91 2
2153 95 1
2153 176 1
2153 191 1
2153 238 1
2153 267 3
2153 286 3
2153 289 1
2153 292 1
2153 302 1
2153 331 3
2153 337 1
2153 442 1
2153 626 1
2153 645 3
2153 647 4
2153 685 2
2153 769 1
2153 857 2
2153 918 1
2153 954 9
2153 1011 1
2153 1047 1
2153 1232 2
2153 1311 3
2153 1312 1
2154 1 1
2154 27 5
2154 29 1
2154 39 1
2154 40 1
2154 41 1
2154 65 1
2154 91 1
2154 234 1
2154 327 1
2154 405 1
2154 531 1
2154 562 1
2154 597 1
2154 678 1
2154 685 1
2154 712 6
2154 810 1
2154 867 1
2154 906 1
2154 1007 2
2154 1270 1
2154 1313 1
2154 1314 1
2154 1316 2
2155 5 1
2155 9 1
2155 30 1
2155 45 1
2155 50 1
2155 61 1
2155 65 1
2155 75 1
2155 80 2
2155 82 1
2155 84 2
2155 86 1
2155 92 1
2155 126 1
2155 153 1
2155 169 3
2155 170 1
2155 186 1
2155 192 1
2155 202 2
2155 219 2
2155 225 1
2155 232 1
2155 244 1
2155 267 1
2155 302 1
2155 303 1
2155 336 2
2155 338 1
2155 347 1
2155 417 2
2155 442 1
2155 457 1
2155 498 1
2155 499 2
2155 503 8
2155 522 1
2155 574 1
2155 581 1
2155 678 1
2155 679 1
2155 743 1
2155 803 1
2155 1099 1
2155 1122 1
2155 1137 4
2155 1334 1
2156 15 1
2156 21 2
2156 35 1
2156 60 1
2156 100 1
2156 153 1
2156 168 1
2156 173 1
2156 187 1
2156 215 6
2156 216 2
2156 229 1
2156 233 2
2156 334 6
2156 349 1
2156 359 1
2156 372 1
2156 379 3
2156 404 1
2156 512 1
2156 632 1
2156 635 2
2156 716 1
2156 776 1
2156 814 1
2156 891 1
2156 944 1
2157 82 1
2157 129 1
2157 160 1
2157 232 1
2157 237 1
2157 266 1
2157 300 1
2157 311 1
2157 327 1
2157 527 3
2157 530 1
2157 589 1
2157 685 4
2157 703 2
2157 943 2
2158 105 1
2158 186 1
2158 215 3
2158 240 1
2158 252 1
2158 314 2
2158 321 3
2158 383 1
2158 498 3
2158 499 3
2158 503 4
2158 504 1
2158 932 1
2159 90 2
2159 157 1
2159 178 1
2159 212 1
2159 226 2
2159 229 1
2159 289 1
2159 294 1
2159 470 1
2159 475 1
2159 685 1
2159 712 2
2159 945 1
2159 1009 1
2159 1084 3
2159 1111 2
2159 1124 1
2159 1128 1
2159 1137 1
2160 50 2
2160 102 2
2160 151 2
2160 175 1
2160 187 4
2160 196 1
2160 227 1
2160 252 1
2160 264 1
2160 375 1
2160 412 2
2160 429 1
2160 442 1
2160 462 2
2160 471 2
2160 478 4
2160 480 1
2160 484 5
2160 510 3
2160 556 6
2160 595 1
2160 603 1
2160 660 2
2160 1158 1
2161 1 2
2161 14 1
2161 52 1
2161 63 1
2161 70 2
2161 76 1
2161 90 1
2161 109 1
2161 239 2
2161 335 1
2161 364 2
2161 516 1
2161 561 1
2161 597 1
2161 644 1
2161 685 1
2161 712 1
2161 744 1
2161 780 2
2161 1105 2
2161 1236 1
2162 7 1
2162 17 2
2162 153 1
2162 335 1
2162 413 3
2162 529 1
2162 682 1
2162 876 1
2162 900 2
2162 954 1
2162 1024 1
2162 1043 1
2162 1106 1
2162 1107 1
2162 1279 1
2162 1310 1
2163 3 1
2163 7 1
2163 40 1
2163 52 3
2163 85 1
2163 89 1
2163 90 1
2163 226 3
2163 251 1
2163 259 1
2163 309 1
2163 400 1
2163 417 1
2163 465 2
2163 579 1
2163 614 2
2163 647 1
2163 652 2
2163 705 1
2163 712 4
2163 752 1
2163 798 1
2163 885 1
2163 1048 1
2163 1062 1
2163 1101 1
2163 1124 2
2163 1224 1
2163 1236 1
2163 1241 1
2163 1249 1
2163 1300 3
2164 35 4
2164 171 2
2164 192 2
2164 331 1
2164 359 1
2164 371 3
2164 393 1
2164 648 1
2165 19 1
2165 44 3
2165 70 1
2165 87 2
2165 122 2
2165 213 1
2165 214 2
2165 234 1
2165 254 2
2165 257 1
2165 289 1
2165 298 1
2165 356 3
2165 417 1
2165 422 1
2165 514 1
2165 672 1
2165 705 2
2165 712 1
2165 744 1
2165 844 1
2165 877 1
2165 958 2
2165 981 1
2165 992 1
2165 1013 1
2165 1101 1
2165 1111 4
2166 13 1
2166 35 1
2166 90 1
2166 126 1
2166 147 1
2166 153 1
2166 160 1
2166 171 1
2166 212 1
2166 226 1
2166 264 4
2166 286 1
2166 330 1
2166 335 1
2166 368 1
2166 391 3
2166 419 6
2166 595 1
2166 626 1
2166 645 1
2166 647 1
2166 685 1
2166 718 1
2166 875 1
2166 1068 1
2166 1090 2
2166 1242 1
2166 1268 3
2166 1273 1
2166 1280 1
2166 1282 1
2166 1325 3
2167 153 1
2167 187 3
2167 191 2
2167 205 1
2167 218 2
2167 227 1
2167 318 1
2167 339 1
2167 341 1
2167 412 1
2167 460 3
2167 472 1
2167 478 4
2167 484 4
2167 489 1
2167 505 1
2167 610 2
2167 642 2
2167 677 1
2167 745 1
2167 770 2
2167 832 1
2168 49 3
2168 74 1
2168 218 2
2168 257 1
2168 273 2
2168 285 1
2168 288 2
2168 302 3
2168 379 3
2168 460 5
2168 512 1
2168 654 1
2168 655 1
2168 660 3
2168 685 1
2168 705 1
2168 721 1
2168 763 4
2168 986 2
2168 1019 1
2168 1072 1
2168 1118 2
2168 1164 1
2168 1267 2
2169 70 1
2169 139 2
2169 162 1
2169 313 1
2169 364 1
2169 376 3
2169 419 1
2169 535 2
2169 580 2
2169 582 6
2169 583 1
2170 146 1
2170 153 1
2170 167 1
2170 216 1
2170 229 2
2170 275 1
2170 589 1
2170 685 2
2170 712 2
2170 885 2
2170 1113 3
2170 1253 1
2170 1267 3
2171 11 1
2171 25 1
2171 70 1
2171 71 1
2171 76 1
2171 80 3
2171 91 3
2171 96 1
2171 139 11
2171 142 1
2171 222 2
2171 231 1
2171 238 1
2171 294 3
2171 298 1
2171 332 1
2171 335 1
2171 371 1
2171 421 1
2171 463 1
2171 505 2
2171 511 3
2171 514 4
2171 538 4
2171 557 2
2171 584 1
2171 631 1
2171 649 1
2171 719 1
2171 821 1
2171 1022 1
2171 1041 7
2171 1148 3
2171 1189 2
2172 55 1
2172 80 1
2172 171 1
2172 240 1
2172 257 3
2172 335 1
2172 393 1
2172 421 1
2172 434 1
2172 498 3
2172 499 1
2172 503 2
2172 635 1
2172 975 1
2172 1202 1
2173 77 1
2173 80 3
2173 82 1
2173 102 1
2173 163 1
2173 170 1
2173 186 1
2173 456 1
2173 484 1
2173 489 1
2173 619 1
2173 620 3
2173 705 1
2173 756 1
2173 957 2
2173 1037 1
2173 1100 1
2174 3 5
2174 15 5
2174 29 14
2174 39 4
2174 66 2
2174 67 1
2174 84 5
2174 87 2
2174 88 3
2174 90 4
2174 91 2
2174 102 1
2174 108 2
2174 117 3
2174 150 2
2174 156 1
2174 365 1
2174 584 2
2174 645 1
2174 660 1
2174 688 1
2174 1084 1
2174 1223 3
2175 1 2
2175 29 4
2175 40 1
2175 63 3
2175 84 1
2175 153 1
2175 157 1
2175 160 1
2175 207 1
2175 213 1
2175 225 1
2175 245 1
2175 254 1
2175 286 1
2175 338 1
2175 347 1
2175 471 2
2175 544 1
2175 595 1
2175 616 1
2175 784 1
2175 862 1
2175 966 2
2175 995 1
2175 1094 1
2175 1270 2
2175 1302 1
2175 1313 3
2176 1 2
2176 15 1
2176 29 4
2176 63 3
2176 84 1
2176 153 1
2176 157 1
2176 160 1
2176 207 1
2176 213 1
2176 225 1
2176 245 1
2176 254 1
2176 286 2
2176 338 1
2176 471 2
2176 544 1
2176 595 1
2176 784 1
2176 862 1
2176 966 2
2176 995 1
2176 1094 1
2176 1270 2
2176 1302 1
2176 1313 3
2177 28 1
2177 32 1
2177 52 1
2177 143 1
2177 157 2
2177 183 1
2177 210 1
2177 226 1
2177 254 2
2177 285 1
2177 288 2
2177 302 1
2177 364 2
2177 405 1
2177 489 1
2177 589 1
2177 660 1
2177 685 7
2177 798 1
2177 878 1
2177 900 1
2177 1182 1
2177 1265 1
2177 1280 1
2178 10 6
2178 35 1
2178 80 1
2178 92 1
2178 146 1
2178 153 1
2178 178 1
2178 232 1
2178 279 1
2178 335 1
2178 368 1
2178 372 1
2178 446 4
2178 511 3
2178 566 1
2178 682 6
2178 709 1
2178 743 1
2178 794 5
2178 1024 1
2178 1279 1
2179 20 1
2179 75 1
2179 92 1
2179 119 1
2179 232 1
2179 291 1
2179 295 1
2179 316 1
2179 410 3
2179 614 1
2180 12 1
2180 41 1
2180 65 1
2180 76 1
2180 92 1
2180 100 1
2180 168 1
2180 172 1
2180 178 1
2180 254 2
2180 331 3
2180 345 1
2180 442 1
2180 486 1
2180 641 1
2180 698 1
2180 1010 7
2180 1109 1
2181 13 1
2181 21 1
2181 24 1
2181 45 2
2181 50 3
2181 86 3
2181 111 1
2181 146 1
2181 150 4
2181 153 1
2181 254 3
2181 341 1
2181 368 1
2181 416 2
2181 553 1
2181 595 2
2181 645 2
2181 665 1
2181 670 1
2181 678 1
2181 833 1
2181 944 1
2181 1072 2
2181 1100 1
2181 1258 4
2181 1281 1
2182 11 2
2182 13 1
2182 50 1
2182 81 3
2182 85 2
2182 126 6
2182 143 1
2182 186 1
2182 315 2
2182 375 1
2182 416 1
2182 446 1
2182 484 1
2182 528 1
2182 537 2
2182 595 1
2182 686 1
2182 792 1
2182 794 1
2182 833 1
2182 930 1
2182 1281 1
2183 28 8
2183 46 1
2183 47 3
2183 50 1
2183 59 1
2183 70 1
2183 71 1
2183 75 3
2183 151 1
2183 186 1
2183 212 1
2183 219 3
2183 333 1
2183 347 1
2183 471 1
2183 484 1
2183 542 1
2183 716 1
2184 13 1
2184 24 1
2184 50 5
2184 52 2
2184 64 1
2184 67 1
2184 84 3
2184 88 1
2184 94 1
2184 117 2
2184 131 1
2184 150 2
2184 163 1
2184 170 1
2184 243 1
2184 294 1
2184 298 1
2184 433 1
2184 476 1
2184 511 1
2184 553 2
2184 556 1
2184 595 1
2184 627 2
2184 645 1
2184 685 5
2184 687 1
2184 960 1
2184 1000 1
2184 1137 1
2184 1323 2
2185 10 1
2185 21 3
2185 50 1
2185 56 1
2185 62 1
2185 75 1
2185 92 1
2185 153 3
2185 232 1
2185 266 1
2185 298 1
2185 303 1
2185 413 2
2185 432 1
2185 449 2
2185 460 1
2185 484 1
2185 511 2
2185 660 1
2185 673 1
2185 809 1
2185 817 3
2185 958 1
2185 1019 1
2186 44 2
2186 52 1
2186 58 1
2186 62 2
2186 63 2
2186 122 4
2186 167 1
2186 212 2
2186 214 2
2186 252 1
2186 259 2
2186 286 1
2186 306 11
2186 309 1
2186 310 1
2186 356 5
2186 359 2
2186 375 2
2186 382 1
2186 413 5
2186 475 1
2186 506 1
2186 655 1
2186 672 1
2186 685 2
2186 830 1
2186 864 1
2186 940 1
2186 1084 2
2186 1111 5
2186 1137 1
2186 1154 1
2186 1196 1
2186 1280 3
2187 29 3
2187 62 1
2187 82 1
2187 205 2
2187 243 1
2187 252 1
2187 266 2
2187 269 1
2187 279 1
2187 298 1
2187 307 1
2187 322 4
2187 405 1
2187 440 1
2187 612 1
2187 739 2
2187 805 1
2187 866 1
2187 1300 1
2187 1337 2
2188 1 1
2188 28 3
2188 44 1
2188 95 2
2188 143 2
2188 158 1
2188 175 1
2188 178 1
2188 183 1
2188 199 2
2188 238 1
2188 244 1
2188 264 1
2188 336 1
2188 435 1
2188 442 1
2188 554 1
2188 630 1
2188 886 2
2188 1034 1
2189 75 6
2189 119 1
2189 139 1
2189 157 2
2189 189 1
2189 256 1
2189 267 5
2189 299 2
2189 331 1
2189 345 1
2189 969 1
2189 1109 1
2189 1321 6
2190 64 1
2190 87 1
2190 183 1
2190 186 3
2190 305 2
2190 327 1
2190 360 1
2190 368 1
2190 378 1
2190 511 1
2190 528 1
2190 546 1
2190 560 1
2190 616 1
2190 711 6
2190 901 1
2190 915 1
2190 1228 1
2191 70 2
2191 80 1
2191 83 1
2191 232 1
2191 236 1
2191 266 1
2191 298 1
2191 329 1
2191 346 1
2191 415 1
2191 442 1
2191 521 1
2191 581 1
2191 621 1
2191 729 1
2191 759 1
2191 770 1
2191 836 1
2191 848 1
2191 1315 1
2192 80 1
2192 168 4
2192 202 1
2192 238 1
2192 331 1
2192 332 1
2192 376 5
2192 378 1
2192 698 2
2193 5 2
2193 16 2
2193 24 3
2193 25 5
2193 27 1
2193 86 1
2193 92 1
2193 93 1
2193 148 1
2193 150 1
2193 186 2
2193 220 1
2193 229 1
2193 254 1
2193 267 1
2193 295 1
2193 390 1
2193 413 2
2193 418 1
2193 530 1
2193 679 1
2193 730 1
2193 760 1
2193 846 1
2193 1162 1
2193 1211 1
2193 1212 1
2193 1222 1
2194 1 2
2194 3 4
2194 4 4
2194 7 1
2194 13 2
2194 19 1
2194 20 2
2194 21 3
2194 25 17
2194 27 2
2194 29 1
2194 42 1
2194 43 1
2194 45 1
2194 75 1
2194 85 1
2194 98 1
2194 113 1
2194 129 1
2194 143 1
2194 170 2
2194 184 1
2194 231 2
2194 254 5
2194 255 1
2194 257 1
2194 266 1
2194 306 4
2194 335 1
2194 356 1
2194 388 1
2194 442 1
2194 511 1
2194 528 2
2194 580 1
2194 616 1
2194 638 1
2194 705 2
2194 800 3
2194 861 1
2194 927 1
2194 962 1
2194 1028 1
2194 1075 1
2194 1148 1
2194 1249 1
2195 16 2
2195 24 1
2195 87 5
2195 110 1
2195 153 2
2195 171 1
2195 257 2
2195 260 1
2195 288 1
2195 332 1
2195 379 1
2195 415 1
2195 419 2
2195 443 1
2195 468 2
2195 512 1
2195 544 1
2195 606 2
2195 613 1
2195 660 1
2195 673 2
2195 697 1
2195 775 1
2195 786 1
2195 819 2
2195 846 1
2195 880 1
2195 1043 1
2195 1068 1
2195 1241 1
2196 25 1
2196 44 1
2196 117 2
2196 169 1
2196 193 1
2196 206 4
2196 238 1
2196 403 1
2196 404 2
2196 503 2
2196 601 1
2196 681 3
2196 685 4
2196 734 2
2196 735 1
2196 932 1
2196 985 2
2196 1136 1
2196 1180 1
2196 1245 3
2196 1318 1
2197 286 1
2197 363 1
2197 442 1
2197 633 1
2197 777 1
2197 918 1
2198 1 2
2198 5 3
2198 21 2
2198 23 1
2198 25 1
2198 29 1
2198 35 1
2198 64 1
2198 76 1
2198 286 1
2198 458 1
2198 476 2
2198 572 3
2198 576 1
2198 637 1
2198 789 1
2198 957 4
2198 1313 3
2199 235 1
2199 244 1
2199 286 1
2199 304 1
2199 372 1
2199 378 1
2199 499 1
2199 624 2
2199 775 1
2199 910 1
2199 964 1
2199 1163 1
2200 21 1
2200 63 1
2200 90 2
2200 186 2
2200 203 1
2200 226 1
2200 235 3
2200 305 1
2200 313 1
2200 564 1
2200 685 8
2200 864 1
2200 1326 1
2200 1336 2
2201 80 1
2201 90 9
2201 143 1
2201 184 2
2201 300 2
2201 442 1
2201 514 1
2201 685 12
2201 712 1
2201 780 1
2201 804 2
2201 864 1
2201 1007 1
2201 1326 1
2202 27 2
2202 76 2
2202 87 2
2202 92 1
2202 100 1
2202 137 1
2202 139 2
2202 170 4
2202 175 1
2202 193 1
2202 237 1
2202 290 1
2202 327 1
2202 329 1
2202 346 8
2202 468 1
2202 729 2
2202 734 1
2202 860 3
2203 25 4
2203 35 2
2203 73 1
2203 171 3
2203 226 1
2203 232 1
2203 312 2
2203 356 1
2203 419 1
2203 511 1
2203 654 1
2203 712 5
2203 780 1
2203 928 1
2203 1084 1
2203 1090 1
2203 1205 3
2203 1304 1
2204 26 1
2204 39 1
2204 40 1
2204 47 2
2204 70 7
2204 80 1
2204 106 2
2204 112 3
2204 139 2
2204 153 1
2204 160 1
2204 172 1
2204 218 3
2204 233 1
2204 241 2
2204 244 1
2204 259 1
2204 364 1
2204 367 1
2204 375 1
2204 376 3
2204 392 1
2204 409 2
2204 414 1
2204 481 1
2204 510 1
2204 564 1
2204 705 2
2204 800 1
2204 890 1
2204 920 1
2204 1054 1
2204 1073 1
2204 1199 1
2204 1226 1
2205 25 1
2205 80 2
2205 102 3
2205 186 1
2205 264 1
2205 282 1
2205 302 1
2205 306 1
2205 358 2
2205 361 1
2205 405 1
2205 442 1
2205 673 1
2206 3 1
2206 20 1
2206 39 1
2206 56 1
2206 70 1
2206 101 2
2206 167 1
2206 398 1
2206 449 1
2206 499 1
2206 507 1
2206 602 1
2206 705 2
2206 1257 1
2206 1308 1
2207 76 1
2207 78 1
2207 82 1
2207 92 2
2207 103 2
2207 151 1
2207 170 1
2207 222 1
2207 243 3
2207 257 4
2207 514 4
2207 515 1
2207 543 1
2207 583 1
2207 638 1
2207 668 3
2207 705 1
2207 823 2
2207 877 3
2207 927 1
2207 981 2
2207 1004 1
2207 1009 3
2207 1311 2
2208 16 1
2208 19 1
2208 34 1
2208 65 1
2208 75 4
2208 255 1
2208 311 2
2208 413 2
2208 511 1
2208 601 1
2208 743 1
2208 815 1
2208 910 2
2208 916 1
2208 1147 1
2209 5 1
2209 15 7
2209 41 1
2209 48 1
2209 80 13
2209 124 1
2209 129 1
2209 150 13
2209 153 3
2209 154 1
2209 215 1
2209 291 1
2209 336 2
2209 401 1
2209 514 3
2209 594 1
2209 673 1
2209 821 1
2209 843 1
2209 865 4
2209 1061 1
2209 1078 4
2210 136 2
2210 273 4
2210 283 1
2210 289 1
2210 364 1
2210 389 1
2210 392 2
2210 412 5
2210 417 1
2210 442 4
2210 476 1
2210 514 1
2210 607 1
2210 685 2
2210 936 1
2210 953 1
2210 1007 2
2210 1008 3
2210 1012 1
2210 1036 3
2210 1322 3
2210 1326 1
2211 1 1
2211 29 1
2211 31 1
2211 76 1
2211 90 3
2211 207 1
2211 216 1
2211 238 1
2211 243 1
2211 285 1
2211 364 1
2211 457 1
2211 487 1
2211 501 5
2211 605 1
2211 606 1
2211 685 13
2211 749 2
2211 824 2
2211 900 3
2211 1045 1
2211 1096 2
2212 70 2
2212 105 1
2212 131 1
2212 170 5
2212 202 1
2212 216 1
2212 229 2
2212 268 2
2212 319 2
2212 332 1
2212 334 1
2212 381 2
2212 412 1
2212 433 2
2212 468 2
2212 512 1
2212 634 1
2212 708 1
2212 725 2
2212 744 2
2212 960 1
2212 1074 1
2213 53 1
2213 64 1
2213 70 2
2213 76 1
2213 80 3
2213 119 1
2213 123 5
2213 131 1
2213 141 1
2213 159 1
2213 160 1
2213 206 2
2213 229 1
2213 285 2
2213 334 3
2213 481 1
2213 508 1
2213 808 1
2214 39 2
2214 43 4
2214 57 1
2214 62 2
2214 117 1
2214 127 1
2214 139 2
2214 150 1
2214 175 1
2214 187 1
2214 269 1
2214 308 3
2214 369 1
2214 381 5
2214 454 1
2214 519 1
2214 812 2
2214 879 1
2214 1019 2
2214 1074 1
2215 1 1
2215 2 1
2215 25 2
2215 28 1
2215 32 1
2215 70 1
2215 72 4
2215 79 1
2215 84 1
2215 87 1
2215 98 1
2215 208 1
2215 213 1
2215 226 1
2215 286 1
2215 673 1
2215 721 1
2215 773 4
2215 912 1
2215 1084 1
2215 1187 1
2215 1310 1
2216 1 1
2216 16 2
2216 25 1
2216 35 1
2216 89 2
2216 153 1
2216 257 1
2216 413 1
2216 432 1
2216 554 1
2216 614 1
2216 729 1
2216 1196 1
2216 1259 2
2216 1260 4
2216 1278 2
2217 10 3
2217 35 1
2217 52 1
2217 65 1
2217 79 1
2217 85 1
2217 153 4
2217 229 1
2217 252 2
2217 339 1
2217 595 1
2217 650 1
2217 660 1
2217 927 1
2218 91 2
2218 139 4
2218 144 1
2218 181 1
2218 300 1
2218 378 2
2218 392 1
2218 800 1
2218 932 1
2218 1142 1
2219 15 1
2219 80 4
2219 117 1
2219 233 1
2219 238 1
2219 282 1
2219 426 1
2219 601 1
2219 734 1
2219 821 2
2219 908 2
2219 909 2
2220 91 1
2220 98 1
2220 115 2
2220 146 1
2220 150 5
2220 442 1
2220 512 1
2220 685 2
2220 712 1
2220 770 1
2220 876 2
2220 900 5
2220 906 4
2220 945 1
2220 1317 1
2220 1326 1
2220 1336 6
2221 1 1
2221 35 1
2221 39 1
2221 53 1
2221 160 1
2221 169 1
2221 178 1
2221 183 1
2221 226 1
2221 251 1
2221 344 1
2221 405 1
2221 579 1
2221 589 1
2221 653 1
2221 712 4
2221 714 1
2221 853 1
2221 885 2
2221 1068 1
2221 1071 1
2221 1245 1
2221 1264 1
2221 1302 1
2221 1335 1
2222 16 1
2222 35 1
2222 122 1
2222 143 1
2222 146 1
2222 153 1
2222 555 1
2222 855 1
2222 856 2
2222 927 1
2222 976 1
2222 1266 2
2222 1298 5
2222 1333 1
2223 6 3
2223 70 3
2223 75 2
2223 102 13
2223 148 3
2223 192 2
2223 306 2
2223 348 1
2223 359 12
2223 378 1
2223 514 1
2223 515 1
2223 614 1
2223 661 1
2223 704 3
2223 734 3
2223 913 1
2224 21 1
2224 34 1
2224 77 1
2224 175 2
2224 193 1
2224 215 1
2224 280 2
2224 295 1
2224 314 1
2224 318 1
2224 338 1
2224 442 3
2224 472 1
2224 486 1
2224 636 1
2224 642 1
2225 33 1
2225 90 1
2225 179 1
2225 229 1
2225 266 1
2225 302 1
2225 306 1
2225 311 1
2225 336 1
2225 340 1
2225 381 1
2225 387 1
2225 442 1
2225 527 2
2225 749 5
2225 751 1
2225 830 1
2225 904 1
2225 916 1
2225 1016 1
2225 1086 4
2225 1203 1
2225 1241 1
2225 1275 1
2226 25 3
2226 27 1
2226 36 2
2226 62 1
2226 75 2
2226 89 1
2226 95 7
2226 110 1
2226 256 1
2226 259 2
2226 314 2
2226 412 1
2226 443 1
2226 509 2
2226 528 2
2226 556 8
2226 557 1
2226 618 2
2226 642 2
2226 653 2
2226 672 4
2226 701 1
2226 820 2
2226 870 6
2226 928 1
2226 951 1
2226 1012 1
2226 1090 1
2226 1160 1
2226 1305 2
2227 17 2
2227 25 4
2227 35 4
2227 86 1
2227 89 1
2227 91 4
2227 105 2
2227 113 2
2227 115 1
2227 122 2
2227 143 3
2227 153 1
2227 158 2
2227 257 1
2227 260 1
2227 310 1
2227 334 1
2227 379 1
2227 413 1
2227 414 1
2227 443 1
2227 448 1
2227 449 10
2227 471 3
2227 488 1
2227 660 1
2227 683 2
2227 693 2
2227 697 2
2227 729 3
2227 752 1
2227 833 1
2227 998 1
2227 1021 2
2227 1104 3
2227 1164 1
2227 1260 3
2227 1278 2
2228 9 1
2228 42 3
2228 59 1
2228 90 2
2228 93 1
2228 96 2
2228 169 1
2228 179 1
2228 183 3
2228 226 1
2228 283 6
2228 306 1
2228 356 1
2228 359 1
2228 389 2
2228 412 1
2228 429 1
2228 465 1
2228 471 1
2228 522 1
2228 678 1
2228 685 7
2228 789 1
2228 805 1
2228 822 1
2228 824 1
2228 876 1
2228 884 1
2228 900 3
2228 1084 1
2228 1096 3
2228 1099 1
2228 1101 1
2228 1111 15
2228 1134 1
2228 1137 1
2228 1139 1
2228 1157 1
2228 1166 1
2228 1188 2
2228 1240 1
2228 1297 1
2228 1330 2
2229 27 1
2229 34 1
2229 45 1
2229 53 1
2229 143 1
2229 150 10
2229 238 1
2229 283 5
2229 286 5
2229 300 1
2229 304 1
2229 331 1
2229 476 4
2229 489 1
2229 498 1
2229 595 1
2229 660 1
2229 685 2
2229 705 1
2229 1007 4
2229 1090 1
2229 1242 2
2229 1322 1
2229 1325 1
2230 179 1
2230 229 1
2230 285 2
2230 382 1
2230 414 1
2230 460 3
2230 542 3
2230 642 1
2230 940 1
2230 1135 1
2230 1296 2
2231 1 4
2231 38 2
2231 45 2
2231 47 1
2231 65 1
2231 75 1
2231 76 1
2231 104 1
2231 111 1
2231 177 1
2231 183 1
2231 187 1
2231 193 1
2231 281 3
2231 364 3
2231 367 2
2231 409 2
2231 420 1
2231 457 2
2231 546 2
2231 595 2
2231 686 2
2231 852 1
2231 858 1
2232 1 1
2232 15 2
2232 29 1
2232 39 2
2232 131 1
2232 139 6
2232 142 1
2232 143 2
2232 157 1
2232 167 5
2232 254 1
2232 291 1
2232 299 1
2232 336 1
2232 505 2
2232 511 1
2232 573 3
2232 658 1
2232 804 1
2232 1333 1
2233 34 5
2233 60 1
2233 70 1
2233 132 1
2233 169 1
2233 179 3
2233 186 1
2233 207 2
2233 213 1
2233 238 1
2233 251 1
2233 274 1
2233 286 3
2233 289 1
2233 344 1
2233 346 5
2233 404 1
2233 604 1
2233 630 1
2233 689 1
2233 873 1
2233 891 1
2233 899 1
2233 983 1
2233 1153 1
2233 1239 1
2234 131 1
2234 203 1
2234 206 1
2234 238 1
2234 254 1
2234 282 1
2234 285 3
2234 334 6
2234 356 1
2234 358 3
2234 503 2
2234 515 1
2234 564 1
2234 576 1
2234 876 1
2234 931 1
2235 1 6
2235 35 1
2235 50 1
2235 66 1
2235 70 1
2235 72 1
2235 87 1
2235 90 2
2235 232 1
2235 256 1
2235 286 6
2235 355 1
2235 512 1
2235 518 1
2235 673 1
2235 712 1
2235 746 1
2235 780 1
2235 784 1
2235 848 1
2235 978 1
2235 1023 1
2235 1088 1
2235 1105 1
2236 70 2
2236 186 1
2236 207 1
2236 213 2
2236 372 2
2236 378 5
2236 419 2
2236 582 2
2236 616 1
2236 634 1
2237 80 1
2237 142 1
2237 179 3
2237 286 6
2237 442 3
2237 458 2
2237 492 1
2237 612 1
2237 827 1
2237 943 2
2238 35 1
2238 65 1
2238 77 4
2238 110 1
2238 141 1
2238 160 1
2238 192 1
2238 234 1
2238 254 2
2238 298 1
2238 425 2
2238 517 3
2238 525 1
2238 631 1
2238 635 1
2238 802 1
2238 900 1
2238 902 1
2238 915 1
2238 916 1
2238 933 1
2238 1219 1
2239 1 1
2239 3 2
2239 19 1
2239 29 1
2239 44 1
2239 45 1
2239 65 1
2239 75 2
2239 84 1
2239 103 1
2239 143 1
2239 147 2
2239 151 1
2239 187 1
2239 220 1
2239 236 1
2239 238 2
2239 254 9
2239 256 1
2239 306 1
2239 325 1
2239 364 2
2239 376 1
2239 388 5
2239 499 5
2239 546 1
2239 558 2
2239 573 1
2239 630 1
2239 635 5
2239 684 1
2239 694 2
2239 697 1
2239 727 1
2239 821 3
2239 822 1
2239 866 1
2239 876 1
2239 883 1
2239 903 4
2239 922 1
2239 954 1
2239 1065 1
2239 1108 1
2239 1182 2
2239 1194 2
2240 1 1
2240 35 1
2240 61 1
2240 147 1
2240 226 1
2240 243 1
2240 251 1
2240 254 1
2240 312 1
2240 488 1
2240 685 1
2240 712 1
2240 1232 1
2240 1242 1
2240 1253 1
2241 11 2
2241 58 1
2241 75 1
2241 80 3
2241 81 1
2241 84 7
2241 117 1
2241 126 1
2241 149 1
2241 153 1
2241 164 2
2241 169 1
2241 171 1
2241 186 1
2241 204 1
2241 225 1
2241 244 2
2241 274 1
2241 302 2
2241 320 1
2241 382 1
2241 393 1
2241 697 1
2241 763 1
2241 832 1
2241 897 1
2241 918 2
2241 971 1
2241 982 1
2241 987 1
2241 988 3
2241 1137 1
2241 1141 1
2242 20 1
2242 70 1
2242 80 1
2242 131 1
2242 160 1
2242 168 1
2242 170 4
2242 218 1
2242 268 1
2242 319 3
2242 375 1
2242 381 1
2242 433 2
2242 563 1
2242 567 1
2242 663 1
2242 725 5
2242 952 1
2242 960 1
2242 1065 1
2243 5 6
2243 58 1
2243 231 2
2243 238 1
2243 250 1
2243 258 1
2243 306 4
2243 460 1
2243 506 2
2243 548 1
2243 556 1
2243 672 1
2243 705 1
2243 877 1
2243 996 1
2243 1001 1
2243 1077 1
2243 1137 1
2243 1154 1
2243 1166 1
2243 1290 1
2244 86 2
2244 143 1
2244 171 2
2244 204 1
2244 209 1
2244 210 2
2244 214 1
2244 283 1
2244 368 1
2244 595 3
2244 622 1
2244 650 1
2244 686 1
2244 918 1
2244 923 1
2244 1067 1
2244 1226 1
2244 1281 1
2245 24 1
2245 25 1
2245 35 2
2245 39 3
2245 40 1
2245 90 1
2245 254 1
2245 479 2
2245 685 2
2245 1016 1
2245 1203 1
2245 1266 4
2245 1340 1
2246 21 1
2246 44 1
2246 47 2
2246 87 2
2246 167 2
2246 180 1
2246 192 2
2246 256 3
2246 298 1
2246 458 1
2246 459 1
2246 460 3
2247 1 2
2247 21 2
2247 25 2
2247 35 3
2247 76 3
2247 88 1
2247 94 1
2247 153 2
2247 554 2
2247 846 1
2247 891 1
2247 1259 1
2248 5 1
2248 25 2
2248 33 1
2248 35 1
2248 110 1
2248 143 1
2248 146 1
2248 153 3
2248 215 1
2248 238 1
2248 323 2
2248 413 1
2248 418 1
2248 515 2
2248 517 2
2248 796 1
2248 833 1
2248 1084 1
2248 1099 1
2248 1105 1
2248 1107 1
2248 1283 1
2248 1310 1
2249 52 2
2249 58 1
2249 63 1
2249 95 1
2249 164 1
2249 214 2
2249 234 1
2249 286 5
2249 289 2
2249 302 1
2249 356 1
2249 364 1
2249 403 1
2249 417 1
2249 429 1
2249 460 2
2249 506 1
2249 511 1
2249 514 1
2249 556 1
2249 605 1
2249 686 1
2249 705 1
2249 712 1
2249 748 1
2249 784 1
2249 1061 1
2249 1086 1
2249 1111 3
2249 1114 1
2249 1137 1
2249 1276 1
2249 1312 1
2250 21 2
2250 25 1
2250 35 5
2250 87 1
2250 91 2
2250 100 1
2250 122 1
2250 153 3
2250 257 1
2250 379 1
2250 446 1
2250 650 1
2250 666 1
2250 796 1
2250 916 1
2250 1255 2
2250 1259 2
2251 1 11
2251 13 1
2251 58 1
2251 126 3
2251 128 1
2251 172 1
2251 187 1
2251 203 1
2251 257 1
2251 285 3
2251 302 1
2251 305 2
2251 306 1
2251 311 1
2251 381 1
2251 511 1
2251 516 1
2251 581 1
2251 632 1
2251 657 1
2251 720 12
2251 724 3
2251 914 2
2251 966 1
2251 1138 1
2251 1243 1
2252 75 1
2252 273 1
2252 336 2
2252 413 1
2252 442 3
2252 537 2
2252 609 3
2252 672 1
2252 727 1
2252 773 1
2252 1094 1
2252 1235 2
2253 21 2
2253 80 3
2253 138 1
2253 311 1
2253 313 3
2253 378 5
2253 405 1
2253 564 1
2253 1000 1
2254 3 1
2254 40 1
2254 45 3
2254 66 3
2254 75 2
2254 82 1
2254 84 1
2254 104 1
2254 161 1
2254 167 1
2254 184 1
2254 187 1
2254 192 2
2254 238 1
2254 254 11
2254 311 5
2254 312 1
2254 409 1
2254 415 1
2254 551 1
2254 552 1
2254 585 2
2254 623 1
2254 696 1
2254 706 1
2254 804 1
2254 821 2
2254 865 2
2254 910 1
2254 1098 1
2254 1323 1
2255 10 4
2255 45 1
2255 65 1
2255 70 2
2255 86 1
2255 102 2
2255 150 5
2255 153 4
2255 170 2
2255 192 1
2255 225 4
2255 332 2
2255 334 1
2255 368 2
2255 423 4
2255 561 3
2255 647 2
2255 680 1
2255 697 4
2255 701 3
2255 776 1
2255 836 1
2255 882 12
2255 944 2
2255 1258 2
2255 1281 1
2256 13 1
2256 21 1
2256 50 9
2256 56 1
2256 60 1
2256 64 1
2256 70 1
2256 75 1
2256 90 1
2256 100 1
2256 101 1
2256 125 3
2256 161 1
2256 183 1
2256 218 1
2256 229 1
2256 257 1
2256 310 6
2256 415 1
2256 469 1
2256 508 1
2256 581 1
2256 595 3
2256 685 1
2256 846 1
2256 883 1
2256 1010 1
2256 1033 1
2256 1165 1
2256 1301 2
2257 1 1
2257 3 2
2257 33 1
2257 39 1
2257 53 1
2257 70 1
2257 80 1
2257 90 1
2257 160 2
2257 169 2
2257 172 1
2257 187 4
2257 342 2
2257 375 1
2257 389 1
2257 445 1
2257 505 1
2257 513 1
2257 530 1
2257 544 1
2257 644 3
2257 655 1
2257 670 2
2257 673 2
2257 694 1
2257 741 1
2257 769 1
2257 780 1
2257 862 2
2257 884 1
2257 933 1
2257 1113 5
2258 1 4
2258 13 1
2258 45 1
2258 91 1
2258 128 1
2258 157 1
2258 181 2
2258 206 3
2258 299 2
2258 306 5
2258 311 1
2258 313 2
2258 353 1
2258 364 4
2258 395 2
2258 543 1
2258 573 1
2258 580 4
2258 727 1
2258 756 2
2258 875 2
2258 1094 1
2259 45 1
2259 63 1
2259 80 2
2259 104 1
2259 109 1
2259 112 1
2259 168 1
2259 172 1
2259 189 1
2259 232 1
2259 234 1
2259 256 1
2259 307 1
2259 366 1
2259 388 1
2259 419 1
2259 655 1
2259 944 1
2259 1022 1
2259 1150 1
2260 1 4
2260 7 1
2260 16 2
2260 27 1
2260 35 1
2260 91 1
2260 153 2
2260 335 1
2260 413 2
2260 432 1
2260 450 1
2260 1053 1
2260 1168 1
2260 1213 1
2260 1285 2
2261 35 1
2261 41 1
2261 216 1
2261 252 1
2261 273 1
2261 382 1
2261 488 1
2261 562 1
2261 589 1
2261 654 1
2261 712 1
2261 810 3
2261 872 1
2261 876 1
2261 1025 1
2261 1036 1
2261 1232 4
2261 1242 1
2261 1244 2
2261 1253 1
2261 1316 1
2262 77 1
2262 78 1
2262 185 1
2262 216 1
2262 236 1
2262 303 1
2262 312 1
2262 343 1
2262 395 1
2262 406 1
2262 701 1
2262 1110 1
2262 1161 1
2263 25 1
2263 35 1
2263 63 3
2263 70 2
2263 85 3
2263 93 1
2263 100 1
2263 108 1
2263 168 1
2263 175 2
2263 251 3
2263 271 1
2263 276 2
2263 339 1
2263 345 4
2263 454 1
2263 518 1
2263 825 1
2263 1044 1
2263 1137 2
2263 1203 2
2263 1236 2
2263 1304 3
2264 45 1
2264 82 1
2264 92 1
2264 141 1
2264 149 4
2264 153 3
2264 187 1
2264 229 1
2264 230 1
2264 266 1
2264 302 1
2264 746 1
2264 922 1
2264 932 1
2264 980 1
2264 1009 1
2264 1063 1
2264 1137 1
2265 12 1
2265 17 1
2265 21 1
2265 42 2
2265 52 1
2265 70 1
2265 101 1
2265 125 1
2265 216 1
2265 218 2
2265 221 1
2265 225 6
2265 653 2
2265 783 1
2265 884 2
2265 1018 1
2265 1201 1
2266 1 1
2266 35 1
2266 115 1
2266 136 4
2266 238 1
2266 255 1
2266 289 1
2266 332 1
2266 419 1
2266 718 1
2266 1011 3
2266 1099 1
2266 1225 2
2266 1232 1
2266 1237 1
2266 1335 2
2267 66 1
2267 232 1
2267 740 1
2267 821 4
2267 1171 2
2268 15 1
2268 50 2
2268 56 1
2268 64 1
2268 125 1
2268 138 1
2268 141 1
2268 185 1
2268 212 3
2268 257 1
2268 303 1
2268 310 1
2268 334 1
2268 425 1
2268 444 2
2268 621 1
2268 633 1
2268 744 2
2268 797 2
2268 851 2
2268 968 1
2269 35 1
2269 241 1
2269 289 1
2269 589 1
2269 653 1
2269 685 1
2269 862 1
2269 1068 2
2269 1201 1
2269 1253 1
2269 1270 2
2269 1313 3
2269 1335 3
2270 41 1
2270 90 1
2270 147 2
2270 160 1
2270 226 2
2270 252 1
2270 254 1
2270 267 1
2270 460 1
2270 474 2
2270 501 1
2270 644 1
2270 712 1
2270 891 1
2270 906 3
2270 983 1
2270 1064 1
2270 1208 3
2270 1264 1
2270 1270 1
2270 1336 1
2271 16 1
2271 17 1
2271 35 1
2271 91 1
2271 115 1
2271 153 2
2271 554 1
2271 683 4
2271 749 1
2271 1021 1
2271 1184 1
2271 1185 1
2271 1267 1
2271 1278 2
2271 1332 1
2272 45 1
2272 47 1
2272 52 1
2272 59 2
2272 168 2
2272 186 2
2272 232 1
2272 234 1
2272 250 1
2272 347 2
2272 365 1
2272 706 3
2272 718 1
2272 747 1
2272 800 1
2272 1038 1
2272 1056 1
2273 18 1
2273 35 1
2273 52 1
2273 57 1
2273 60 2
2273 160 1
2273 205 2
2273 208 2
2273 306 1
2273 422 1
2273 460 1
2273 527 1
2273 570 1
2273 579 3
2273 589 1
2273 611 1
2273 635 2
2273 665 5
2273 712 3
2273 721 1
2273 724 1
2273 805 1
2273 808 1
2273 901 1
2273 903 1
2273 914 2
2273 1072 1
2273 1182 2
2273 1233 2
2273 1236 1
2274 15 1
2274 65 1
2274 82 1
2274 127 1
2274 151 2
2274 257 1
2274 266 1
2274 273 1
2274 305 2
2274 404 1
2274 512 1
2274 652 2
2274 873 1
2275 73 1
2275 231 1
2275 257 1
2275 258 1
2275 283 1
2275 286 5
2275 289 6
2275 364 1
2275 368 2
2275 389 2
2275 432 1
2275 442 1
2275 595 1
2275 673 2
2275 685 29
2275 876 1
2275 1087 1
2275 1240 1
2275 1275 1
2275 1326 5
2276 7 2
2276 10 1
2276 13 2
2276 25 7
2276 27 4
2276 57 1
2276 70 1
2276 81 1
2276 82 1
2276 95 1
2276 101 2
2276 178 1
2276 192 1
2276 217 1
2276 257 1
2276 286 1
2276 449 1
2276 523 1
2276 528 1
2276 548 1
2276 596 3
2276 606 1
2276 645 3
2276 775 2
2276 791 2
2276 813 1
2276 833 2
2276 955 2
2276 1011 1
2276 1070 1
2276 1305 2
2277 15 2
2277 47 1
2277 76 1
2277 98 1
2277 103 1
2277 105 2
2277 193 2
2277 228 2
2277 257 1
2277 292 1
2277 338 1
2277 342 3
2277 379 3
2277 381 1
2277 390 1
2277 412 1
2277 432 1
2277 475 1
2277 566 1
2277 606 1
2277 645 3
2277 660 1
2277 1003 1
2277 1011 2
2277 1042 1
2277 1242 7
2278 25 5
2278 35 2
2278 85 4
2278 87 1
2278 89 4
2278 124 1
2278 187 1
2278 275 1
2278 326 1
2278 371 1
2278 406 1
2278 443 2
2278 574 1
2278 595 1
2278 655 2
2278 661 1
2278 697 5
2278 729 1
2278 743 1
2278 1043 4
2278 1090 1
2278 1091 1
2278 1145 1
2278 1237 1
2279 3 7
2279 9 2
2279 33 1
2279 65 1
2279 66 2
2279 90 11
2279 207 1
2279 226 1
2279 230 2
2279 251 2
2279 266 1
2279 335 1
2279 363 2
2279 382 1
2279 388 1
2279 463 2
2279 499 1
2279 510 2
2279 515 1
2279 598 1
2279 631 1
2279 638 1
2279 672 1
2279 685 1
2279 705 1
2279 749 2
2279 751 1
2279 931 1
2279 1064 1
2279 1173 1
2279 1313 1
2280 1 1
2280 75 1
2280 81 1
2280 129 1
2280 151 1
2280 153 1
2280 315 1
2280 331 1
2280 345 1
2280 399 1
2280 415 1
2280 442 4
2280 530 1
2280 641 1
2280 642 1
2280 670 1
2280 1221 1
2281 25 3
2281 35 1
2281 70 1
2281 85 1
2281 110 1
2281 143 1
2281 226 2
2281 251 1
2281 340 1
2281 749 3
2281 994 1
2281 1084 1
2281 1106 1
2281 1107 1
2281 1203 1
2281 1269 1
2281 1304 1
2282 7 1
2282 18 1
2282 21 3
2282 24 2
2282 25 5
2282 35 2
2282 36 1
2282 89 1
2282 98 1
2282 158 2
2282 248 1
2282 249 1
2282 330 1
2282 375 2
2282 379 1
2282 528 2
2282 558 1
2282 588 1
2282 597 1
2282 647 1
2282 832 2
2282 1114 1
2282 1305 1
2283 1 2
2283 133 1
2283 137 2
2283 139 1
2283 283 1
2283 286 3
2283 346 6
2283 706 2
2283 724 1
2283 899 1
2284 25 1
2284 35 1
2284 85 2
2284 212 1
2284 280 2
2284 286 1
2284 512 1
2284 528 1
2284 885 1
2284 1303 1
2285 15 2
2285 20 1
2285 71 3
2285 77 1
2285 90 2
2285 151 1
2285 198 1
2285 215 1
2285 259 4
2285 266 1
2285 273 1
2285 301 1
2285 302 1
2285 376 3
2285 415 1
2285 471 2
2285 473 1
2285 484 1
2285 486 1
2285 505 1
2285 561 1
2285 567 1
2285 678 2
2285 801 1
2285 918 1
2286 1 2
2286 16 1
2286 17 1
2286 25 3
2286 63 1
2286 65 1
2286 87 1
2286 110 2
2286 115 5
2286 146 1
2286 150 2
2286 183 1
2286 238 1
2286 285 1
2286 364 1
2286 382 1
2286 406 1
2286 413 1
2286 419 2
2286 477 1
2286 511 2
2286 578 1
2286 579 1
2286 597 1
2286 683 3
2286 736 1
2286 743 1
2286 810 1
2286 854 1
2286 1007 1
2286 1043 1
2286 1084 2
2286 1101 1
2286 1126 4
2286 1128 1
2286 1242 1
2286 1332 1
2287 80 1
2287 153 7
2287 187 1
2287 229 3
2287 252 1
2287 283 1
2287 285 1
2287 286 6
2287 289 2
2287 302 1
2287 348 1
2287 374 1
2287 376 1
2287 404 1
2287 514 1
2287 713 1
2287 877 9
2287 973 1
2287 1086 1
2287 1139 1
2287 1154 1
2288 102 1
2288 266 1
2288 305 2
2288 372 1
2288 378 1
2288 419 2
2288 439 2
2288 469 1
2288 512 1
2288 590 1
2288 621 2
2288 806 1
2288 950 1
2288 1087 1
2289 8 1
2289 71 1
2289 75 1
2289 90 1
2289 185 1
2289 187 1
2289 189 1
2289 208 1
2289 212 1
2289 226 1
2289 259 4
2289 405 1
2289 471 2
2289 505 1
2289 515 1
2289 581 1
2289 649 3
2289 749 1
2289 844 1
2289 853 1
2289 902 1
2289 991 1
2289 1040 1
2289 1130 1
2289 1236 2
2289 1297 1
2290 27 1
2290 37 4
2290 58 2
2290 98 7
2290 153 2
2290 197 4
2290 220 1
2290 252 1
2290 359 5
2290 364 1
2290 406 1
2290 456 1
2290 530 2
2290 544 4
2290 546 1
2290 709 1
2290 784 1
2290 883 1
2290 940 1
2290 1084 5
2290 1133 2
2290 1162 1
2290 1164 5
2290 1264 2
2291 11 1
2291 29 2
2291 41 2
2291 52 4
2291 53 3
2291 117 1
2291 187 1
2291 220 1
2291 226 2
2291 241 1
2291 250 1
2291 257 2
2291 364 1
2291 371 1
2291 442 1
2291 489 1
2291 512 1
2291 530 1
2291 543 2
2291 685 7
2291 712 1
2291 719 1
2291 853 4
2291 903 1
2291 1046 1
2291 1062 3
2291 1092 2
2291 1105 1
2291 1141 1
2291 1182 1
2291 1194 5
2291 1240 3
2291 1300 3
2292 21 1
2292 22 1
2292 27 1
2292 44 1
2292 62 2
2292 122 1
2292 146 2
2292 160 1
2292 187 3
2292 236 1
2292 259 1
2292 318 2
2292 356 1
2292 405 1
2292 413 1
2292 422 1
2292 442 1
2292 506 1
2292 514 1
2292 556 1
2292 568 1
2292 685 2
2292 784 1
2292 954 2
2292 1000 1
2292 1047 2
2292 1084 2
2292 1111 5
2292 1154 1
2292 1160 1
2292 1207 1
2292 1227 1
2293 14 1
2293 21 1
2293 27 1
2293 34 1
2293 50 6
2293 75 1
2293 149 1
2293 257 1
2293 262 1
2293 266 1
2293 275 1
2293 285 1
2293 295 1
2293 301 1
2293 332 1
2293 469 1
2293 471 2
2293 480 1
2293 527 3
2293 552 1
2293 595 1
2293 621 3
2293 645 1
2293 652 1
2293 684 1
2293 686 1
2293 814 1
2293 820 1
2293 836 1
2293 852 1
2293 990 1
2294 10 1
2294 35 1
2294 70 4
2294 93 1
2294 98 1
2294 153 4
2294 179 1
2294 213 1
2294 286 1
2294 375 1
2294 446 1
2294 514 1
2294 528 1
2294 595 2
2294 650 1
2294 685 5
2294 764 1
2294 780 1
2294 1000 1
2294 1038 1
2294 1148 1
2294 1190 1
2294 1283 2
2295 1 6
2295 3 3
2295 15 1
2295 21 1
2295 29 6
2295 40 2
2295 52 6
2295 90 2
2295 109 1
2295 158 1
2295 208 2
2295 220 1
2295 243 1
2295 252 2
2295 257 1
2295 319 1
2295 363 1
2295 386 1
2295 393 1
2295 394 5
2295 442 2
2295 475 2
2295 498 2
2295 501 1
2295 527 2
2295 579 1
2295 589 1
2295 630 2
2295 644 1
2295 685 18
2295 703 1
2295 718 1
2295 780 1
2295 862 2
2295 900 1
2295 916 1
2295 956 2
2295 1061 1
2295 1062 1
2295 1105 6
2295 1190 1
2295 1194 1
2295 1203 1
2295 1222 1
2295 1246 1
2295 1261 1
2295 1300 1
2295 1314 1
2296 7 2
2296 10 1
2296 13 3
2296 25 3
2296 27 3
2296 57 3
2296 70 1
2296 81 1
2296 143 1
2296 218 1
2296 225 1
2296 260 2
2296 281 1
2296 285 1
2296 286 1
2296 292 2
2296 359 1
2296 381 1
2296 449 1
2296 527 2
2296 537 2
2296 596 1
2296 597 1
2296 624 1
2296 647 1
2296 660 1
2296 765 3
2296 791 1
2296 811 2
2296 833 1
2296 882 1
2296 959 1
2297 58 1
2297 124 1
2297 163 1
2297 267 1
2297 295 1
2297 306 1
2297 386 1
2297 442 2
2297 522 1
2297 527 1
2297 685 3
2297 868 1
2297 940 1
2297 973 2
2297 1094 1
2297 1096 2
2297 1114 1
2298 5 1
2298 88 1
2298 90 1
2298 102 1
2298 117 2
2298 171 1
2298 172 1
2298 202 1
2298 212 4
2298 257 1
2298 264 1
2298 266 1
2298 268 1
2298 273 1
2298 295 1
2298 307 1
2298 323 1
2298 359 3
2298 379 1
2298 383 1
2298 384 1
2298 412 1
2298 413 1
2298 415 1
2298 433 1
2298 435 2
2298 462 1
2298 510 1
2298 554 2
2298 559 1
2298 563 1
2298 583 1
2298 612 1
2298 697 1
2298 725 2
2298 902 1
2298 1164 1
2299 33 1
2299 52 1
2299 90 1
2299 93 2
2299 179 5
2299 183 1
2299 184 2
2299 243 2
2299 254 1
2299 285 1
2299 492 1
2299 514 3
2299 685 14
2299 788 1
2299 900 1
2299 914 1
2299 1111 6
2299 1180 4
2299 1236 1
2299 1267 3
2300 11 2
2300 13 1
2300 50 6
2300 86 1
2300 102 3
2300 163 2
2300 175 1
2300 183 1
2300 187 1
2300 191 1
2300 195 3
2300 234 1
2300 238 1
2300 291 3
2300 388 1
2300 429 2
2300 473 1
2300 478 1
2300 485 1
2300 494 1
2300 509 2
2300 595 1
2300 653 2
2300 660 1
2300 797 3
2300 853 1
2300 927 1
2301 7 1
2301 10 1
2301 35 2
2301 36 1
2301 85 1
2301 89 2
2301 110 1
2301 158 1
2301 332 1
2301 395 1
2301 405 5
2301 443 1
2301 556 3
2301 729 2
2301 1249 2
2301 1305 1
2302 23 2
2302 34 1
2302 49 3
2302 58 1
2302 74 1
2302 94 1
2302 124 1
2302 150 1
2302 158 1
2302 189 1
2302 286 3
2302 288 3
2302 326 1
2302 363 1
2302 390 1
2302 514 1
2302 654 1
2302 685 1
2302 868 1
2302 1072 1
2302 1242 2
2302 1313 1
2303 123 1
2303 151 2
2303 238 1
2303 267 1
2303 285 2
2303 298 1
2303 335 1
2303 359 1
2303 515 1
2303 566 1
2303 734 1
2303 956 1
2304 132 4
2304 142 1
2304 160 1
2304 179 2
2304 214 1
2304 243 1
2304 279 1
2304 286 5
2304 383 1
2304 471 1
2304 580 1
2304 719 1
2304 729 4
2304 860 5
2304 965 1
2305 16 1
2305 21 2
2305 23 2
2305 24 3
2305 25 3
2305 35 2
2305 36 1
2305 89 1
2305 98 1
2305 158 1
2305 249 1
2305 330 1
2305 368 1
2305 375 1
2305 443 1
2305 471 1
2305 528 1
2305 588 1
2305 597 1
2305 647 1
2305 832 1
2305 880 1
2305 1114 1
2305 1164 1
2305 1305 2
2306 11 1
2306 35 1
2306 41 1
2306 82 1
2306 87 1
2306 96 1
2306 100 1
2306 115 3
2306 150 6
2306 214 2
2306 221 1
2306 286 2
2306 306 1
2306 349 4
2306 613 2
2306 660 4
2306 670 1
2306 685 1
2306 731 1
2306 949 1
2306 988 1
2306 1244 2
2306 1320 1
2306 1326 3
2307 1 4
2307 25 2
2307 35 3
2307 122 1
2307 153 3
2307 168 1
2307 170 1
2307 257 1
2307 381 1
2307 413 1
2307 554 1
2307 589 1
2307 660 1
2307 789 2
2307 976 1
2307 1021 1
2307 1053 1
2307 1178 1
2307 1184 2
2307 1259 1
2307 1260 1
2307 1266 2
2307 1278 2
2307 1332 1
2308 80 1
2308 117 1
2308 156 1
2308 168 1
2308 170 1
2308 171 13
2308 186 1
2308 193 1
2308 208 1
2308 209 2
2308 210 2
2308 257 3
2308 284 1
2308 294 1
2308 314 1
2308 367 1
2308 376 2
2308 426 1
2308 554 1
2308 606 2
2308 660 3
2308 697 1
2309 1 1
2309 14 2
2309 15 2
2309 64 1
2309 132 5
2309 137 1
2309 139 1
2309 158 1
2309 199 1
2309 223 1
2309 245 2
2309 252 1
2309 254 1
2309 266 1
2309 274 1
2309 286 2
2309 298 1
2309 327 1
2309 350 1
2309 381 1
2309 489 1
2309 567 1
2309 584 1
2309 593 1
2309 595 1
2309 761 1
2309 843 2
2309 961 1
2309 1066 2
2309 1146 1
2310 1 2
2310 9 2
2310 28 5
2310 32 1
2310 50 3
2310 64 2
2310 72 1
2310 75 1
2310 219 1
2310 295 1
2310 336 1
2310 400 1
2310 417 1
2310 442 1
2310 499 1
2310 503 4
2310 543 1
2310 547 1
2310 581 1
2310 592 1
2310 595 3
2310 614 1
2310 685 2
2310 747 2
2310 797 4
2310 876 2
2310 933 1
2310 1011 1
2310 1120 2
2310 1190 1
2310 1301 1
2311 34 1
2311 41 1
2311 52 1
2311 72 2
2311 256 1
2311 300 1
2311 364 1
2311 550 1
2311 660 1
2311 814 1
2311 900 1
2311 1128 1
2311 1288 1
2311 1304 1
2312 1 1
2312 14 1
2312 50 1
2312 74 1
2312 116 1
2312 220 1
2312 243 1
2312 359 1
2312 375 1
2312 393 1
2312 501 2
2312 512 1
2312 532 1
2312 541 1
2312 914 1
2312 955 1
2312 966 4
2312 1149 1
2312 1156 1
2312 1244 1
2312 1264 4
2313 75 1
2313 119 1
2313 167 2
2313 192 1
2313 300 1
2313 454 1
2313 636 1
2313 697 1
2313 843 1
2314 1 1
2314 10 1
2314 35 3
2314 45 1
2314 91 2
2314 153 1
2314 168 1
2314 273 1
2314 413 2
2314 449 2
2314 488 1
2314 589 1
2314 650 1
2314 1021 1
2314 1259 1
2314 1260 2
2315 75 2
2315 92 1
2315 93 3
2315 139 1
2315 146 1
2315 147 4
2315 169 1
2315 190 1
2315 229 1
2315 267 1
2315 358 1
2315 453 1
2315 512 1
2315 685 2
2315 843 1
2315 997 1
2316 80 2
2316 112 1
2316 120 1
2316 151 1
2316 171 5
2316 178 1
2316 182 1
2316 217 1
2316 241 1
2316 244 1
2316 254 1
2316 294 2
2316 323 2
2316 372 1
2316 381 1
2316 442 1
2316 512 2
2316 531 1
2316 553 1
2316 556 1
2316 597 2
2316 848 1
2316 1307 1
2317 21 2
2317 29 5
2317 52 3
2317 66 1
2317 82 1
2317 87 1
2317 88 1
2317 108 1
2317 154 1
2317 167 1
2317 168 1
2317 169 1
2317 186 1
2317 208 1
2317 285 2
2317 286 5
2317 299 1
2317 515 1
2317 518 1
2317 712 1
2317 759 1
2317 866 1
2317 903 1
2317 992 1
2317 1083 2
2317 1106 4
2317 1264 1
2317 1283 1
2317 1297 1
2317 1310 4
2318 2 1
2318 63 1
2318 65 2
2318 87 1
2318 91 1
2318 167 1
2318 187 1
2318 213 1
2318 251 1
2318 413 4
2318 442 1
2318 606 1
2318 686 2
2318 694 1
2318 757 1
2318 766 2
2318 896 1
2318 1266 3
2319 21 1
2319 47 1
2319 53 1
2319 75 1
2319 82 1
2319 102 2
2319 153 1
2319 171 8
2319 176 6
2319 212 2
2319 229 2
2319 264 5
2319 273 1
2319 412 3
2319 419 2
2319 468 1
2319 554 3
2319 559 10
2319 583 1
2319 652 3
2319 733 1
2319 745 2
2319 922 1
2319 1001 1
2320 1 3
2320 35 1
2320 100 1
2320 153 3
2320 336 1
2320 412 1
2320 558 1
2320 675 1
2320 750 1
2320 900 4
2320 1090 1
2320 1190 7
2320 1270 4
2320 1287 1
2320 1313 3
2320 1322 1
2321 70 1
2321 168 1
2321 178 1
2321 192 1
2321 212 1
2321 266 1
2321 359 3
2321 381 2
2321 421 1
2321 530 1
2321 563 1
2321 624 4
2321 693 3
2321 811 5
2321 839 1
2321 915 1
2321 1000 1
2321 1017 1
2321 1163 3
2322 47 1
2322 62 1
2322 64 1
2322 156 1
2322 187 2
2322 193 2
2322 236 1
2322 383 4
2322 399 3
2322 537 1
2322 612 1
2322 657 1
2322 661 3
2322 760 1
2322 761 1
2322 762 1
2323 42 1
2323 58 1
2323 65 1
2323 82 1
2323 93 1
2323 226 1
2323 378 1
2323 398 2
2323 589 5
2323 614 1
2323 673 1
2323 712 4
2323 773 3
2323 1027 1
2323 1074 1
2323 1084 3
2323 1101 1
2323 1102 1
2323 1124 1
2323 1193 2
2323 1283 1
2324 81 2
2324 126 1
2324 175 1
2324 186 1
2324 266 2
2324 305 1
2324 307 3
2324 338 1
2324 378 5
2324 433 1
2324 447 1
2324 506 2
2324 606 1
2324 697 1
2324 1023 1
2325 1 1
2325 9 1
2325 41 2
2325 63 1
2325 65 1
2325 90 1
2325 114 1
2325 160 1
2325 178 1
2325 179 2
2325 192 1
2325 215 1
2325 232 1
2325 256 1
2325 259 2
2325 266 1
2325 271 1
2325 276 1
2325 327 2
2325 340 1
2325 345 1
2325 386 1
2325 425 1
2325 464 1
2325 513 1
2325 515 1
2325 581 2
2325 583 1
2325 585 1
2325 591 1
2325 749 2
2325 917 1
2325 1027 1
2325 1038 1
2325 1203 2
2325 1236 2
2326 1 1
2326 21 3
2326 35 1
2326 72 3
2326 77 2
2326 90 2
2326 107 1
2326 214 1
2326 238 1
2326 252 1
2326 286 3
2326 414 1
2326 425 1
2326 432 1
2326 530 1
2326 1084 1
2326 1180 1
2326 1264 7
2327 21 2
2327 34 1
2327 35 3
2327 44 1
2327 178 1
2327 183 3
2327 216 1
2327 251 1
2327 286 2
2327 614 1
2327 619 1
2327 685 2
2327 712 10
2327 731 1
2327 810 5
2327 914 1
2327 1071 8
2327 1223 3
2327 1264 5
2327 1269 1
2327 1270 2
2327 1286 6
2327 1313 2
2328 35 3
2328 64 1
2328 80 1
2328 175 4
2328 213 1
2328 232 1
2328 280 3
2328 285 1
2328 340 1
2328 370 1
2328 371 1
2328 384 3
2328 460 1
2328 524 4
2328 526 3
2328 527 2
2328 734 1
2328 737 2
2329 60 1
2329 61 1
2329 78 1
2329 80 1
2329 110 1
2329 163 1
2329 178 1
2329 226 1
2329 256 1
2329 267 1
2329 280 1
2329 342 1
2329 346 1
2329 471 1
2329 724 1
2329 859 2
2330 28 1
2330 90 1
2330 156 1
2330 179 1
2330 226 1
2330 475 1
2330 549 1
2330 562 1
2330 581 1
2330 685 2
2330 741 1
2330 753 1
2330 885 1
2330 1137 1
2330 1286 1
2330 1293 1
2331 28 1
2331 90 1
2331 156 1
2331 179 1
2331 226 1
2331 475 1
2331 549 1
2331 562 1
2331 581 1
2331 685 2
2331 753 1
2331 885 1
2331 1137 1
2331 1207 1
2331 1286 1
2331 1293 1
2332 14 1
2332 35 2
2332 70 1
2332 77 3
2332 162 1
2332 215 1
2332 239 1
2332 418 1
2332 504 1
2332 514 1
2332 515 1
2332 661 1
2332 753 1
2332 900 1
2332 913 1
2332 952 1
2332 1176 1
2333 5 2
2333 50 2
2333 90 1
2333 110 1
2333 178 1
2333 292 1
2333 335 1
2333 454 1
2333 460 1
2333 618 1
2333 660 1
2333 673 1
2333 685 2
2333 884 1
2333 905 2
2333 944 1
2333 1011 2
2333 1109 1
2333 1119 2
2333 1294 1
2334 286 1
2334 381 1
2334 454 1
2334 775 3
2335 80 5
2335 178 1
2335 206 3
2335 283 2
2335 286 1
2335 305 1
2335 306 1
2335 508 1
2335 630 1
2335 727 1
2336 5 1
2336 15 1
2336 55 1
2336 77 1
2336 90 1
2336 160 1
2336 187 1
2336 189 1
2336 245 1
2336 285 2
2336 386 1
2336 394 1
2336 458 2
2336 595 1
2336 621 1
2336 628 1
2336 676 2
2336 759 1
2336 1106 1
2336 1239 1
2337 92 1
2337 175 1
2337 240 1
2337 255 1
2337 272 1
2337 283 1
2337 286 1
2337 332 1
2337 393 1
2337 395 1
2337 442 1
2337 551 1
2337 602 1
2337 697 1
2337 700 1
2337 752 1
2337 903 1
2337 919 1
2337 946 1
2337 1095 1
2338 3 4
2338 11 2
2338 56 2
2338 206 4
2338 286 1
2338 330 1
2338 372 1
2338 473 8
2338 606 1
2338 614 1
2339 35 1
2339 105 1
2339 589 1
2339 685 1
2339 788 1
2339 1068 2
2339 1101 2
2339 1190 1
2339 1208 1
2339 1232 2
2339 1263 1
2339 1284 2
2340 66 1
2340 82 1
2340 109 1
2340 327 1
2340 398 2
2340 488 1
2340 530 1
2340 574 1
2340 589 4
2340 632 1
2340 685 3
2340 800 1
2340 810 1
2340 892 1
2340 954 2
2340 1068 1
2340 1113 1
2340 1148 1
2340 1232 3
2340 1242 1
2340 1244 1
2340 1246 1
2340 1253 1
2340 1264 3
2340 1270 1
2340 1316 1
2340 1317 2
2341 35 1
2341 114 1
2341 186 1
2341 266 1
2341 283 2
2341 305 2
2341 364 3
2341 432 1
2341 501 3
2341 588 1
2341 624 2
2341 685 7
2341 705 2
2341 774 1
2341 775 2
2341 780 1
2341 915 1
2341 1017 2
2341 1163 1
2341 1227 5
2342 90 1
2342 179 1
2342 183 1
2342 193 1
2342 285 1
2342 378 1
2342 469 1
2342 502 1
2342 579 1
2342 630 1
2342 712 1
2342 850 1
2342 1102 1
2342 1236 1
2342 1239 2
2342 1299 1
2343 24 1
2343 41 1
2343 56 1
2343 66 4
2343 91 1
2343 144 1
2343 164 2
2343 200 3
2343 240 2
2343 249 1
2343 299 1
2343 300 1
2343 302 1
2343 323 1
2343 400 1
2343 515 1
2343 523 1
2343 613 2
2343 688 1
2343 697 1
2343 717 1
2343 750 1
2343 751 3
2343 752 1
2343 784 2
2343 796 1
2343 864 2
2343 866 1
2343 868 1
2343 892 1
2343 900 1
2343 956 1
2343 973 2
2343 1011 1
2343 1096 2
2343 1203 1
2343 1269 1
2343 1281 1
2344 41 1
2344 93 1
2344 153 1
2344 171 1
2344 215 1
2344 216 1
2344 306 1
2344 442 1
2344 685 6
2344 740 1
2344 1015 1
2344 1084 1
2344 1124 1
2344 1267 1
2344 1314 1
2345 8 1
2345 147 1
2345 153 1
2345 267 1
2345 422 1
2345 442 1
2345 589 1
2345 1007 1
2345 1101 1
2345 1263 2
2345 1264 1
2345 1270 1
2346 1 1
2346 29 1
2346 35 1
2346 70 1
2346 126 1
2346 157 1
2346 240 1
2346 303 1
2346 363 1
2346 405 2
2346 419 2
2346 589 1
2346 594 1
2346 680 1
2346 703 1
2346 945 1
2346 1190 1
2346 1236 2
2346 1283 2
2347 34 1
2347 39 1
2347 40 1
2347 52 1
2347 96 1
2347 232 1
2347 257 1
2347 442 3
2347 530 3
2347 581 1
2347 694 1
2347 711 1
2347 988 1
2348 56 2
2348 81 1
2348 103 1
2348 187 1
2348 238 1
2348 251 1
2348 366 1
2348 372 2
2348 378 8
2348 506 2
2348 523 3
2348 527 1
2348 725 2
2348 730 1
2348 733 1
2349 1 1
2349 14 1
2349 18 1
2349 25 6
2349 63 1
2349 93 1
2349 115 1
2349 126 1
2349 139 2
2349 157 1
2349 234 1
2349 254 2
2349 273 2
2349 274 1
2349 275 1
2349 291 1
2349 306 1
2349 325 1
2349 386 1
2349 398 2
2349 415 1
2349 422 1
2349 530 1
2349 579 1
2349 582 1
2349 589 4
2349 597 1
2349 634 1
2349 660 2
2349 671 1
2349 712 4
2349 724 1
2349 743 1
2349 777 1
2349 830 1
2349 882 1
2349 927 1
2349 1007 1
2349 1008 2
2349 1036 2
2349 1049 1
2349 1124 2
2349 1203 1
2349 1264 1
2349 1322 1
2350 61 1
2350 101 1
2350 109 2
2350 175 3
2350 179 1
2350 192 2
2350 266 1
2350 267 1
2350 286 1
2350 300 1
2350 358 3
2350 384 1
2350 418 1
2350 552 1
2350 584 1
2350 671 1
2351 66 1
2351 192 1
2351 215 1
2351 216 1
2351 232 1
2351 236 2
2351 239 1
2351 272 3
2351 277 1
2351 286 1
2351 302 1
2351 303 1
2351 317 1
2351 389 3
2351 454 1
2351 471 1
2351 593 1
2351 633 4
2351 660 1
2351 711 3
2351 1023 1
2351 1052 1
2351 1100 1
2352 64 1
2352 232 1
2352 238 1
2352 301 1
2352 332 1
2352 378 7
2352 531 2
2352 913 3
2352 958 1
2352 1023 1
2352 1047 1
2352 1067 1
2353 75 1
2353 191 1
2353 234 1
2353 384 3
2353 426 3
2353 439 2
2353 753 1
2353 812 2
2354 29 1
2354 44 1
2354 179 3
2354 239 1
2354 256 1
2354 381 1
2354 503 1
2354 624 1
2355 1 1
2355 42 1
2355 80 1
2355 90 1
2355 91 1
2355 93 1
2355 234 1
2355 306 1
2355 442 1
2355 470 1
2355 475 2
2355 562 2
2355 641 1
2355 684 1
2355 685 3
2355 878 1
2355 1096 1
2355 1111 4
2355 1138 1
2355 1236 1
2355 1248 1
2355 1293 2
2356 80 1
2356 279 1
2356 289 1
2356 450 1
2356 597 2
2357 1 1
2357 3 1
2357 49 1
2357 70 2
2357 98 1
2357 134 1
2357 143 1
2357 157 1
2357 186 1
2357 217 1
2357 226 1
2357 232 1
2357 299 1
2357 306 2
2357 311 1
2357 372 1
2357 375 1
2357 389 1
2357 415 1
2357 442 1
2357 501 1
2357 510 1
2357 632 1
2357 645 1
2357 685 7
2357 900 3
2357 980 1
2357 1170 1
2358 1 1
2358 15 3
2358 139 1
2358 190 1
2358 212 3
2358 245 2
2358 279 3
2358 283 1
2358 285 1
2358 296 1
2358 306 1
2358 340 1
2358 374 4
2358 376 2
2358 440 2
2358 500 1
2358 536 1
2358 564 1
2358 800 1
2358 803 1
2358 898 2
2358 1139 1
2358 1173 1
